 vasp.5.4.1 05Feb16 (build Feb 08 2018 09:21:51) complex

 executed on             LinuxIFC date 2019.11.21  23:49:14

 INCAR:
 POTCAR:    PAW_PBE Cu 22Jun2005
 POTCAR:    PAW_PBE O 08Apr2002

 POTCAR:    PAW_PBE Cu 22Jun2005
   VRHFIN =Cu: d10 p1

   TITEL  = PAW_PBE Cu 22Jun2005
   POMASS =   63.546; ZVAL   =   11.000    mass and valenz
   ENMAX  =  295.446; ENMIN  =  221.585 eV

 POTCAR:    PAW_PBE O 08Apr2002
   VRHFIN =O: s2p4

   TITEL  = PAW_PBE O 08Apr2002
   POMASS =   16.000; ZVAL   =    6.000    mass and valenz
   ENMAX  =  400.000; ENMIN  =  300.000 eV

  PAW_PBE Cu 22Jun2005                  :
  PAW_PBE O 08Apr2002                   :

 POSCAR: Cu  O
  positions in cartesian coordinates
 exchange correlation table for  LEXCH =        8
   RHO(1)=    0.500       N(1)  =     2000
   RHO(2)=  100.500       N(2)  =     4000

 ion  position               nearest neighbor table
   1  0.167  0.167  0.415-   5 2.52   8 2.52   6 2.52   2 2.57   3 2.57   4 2.57   4 2.57   2 2.57
                             3 2.57
   2  0.667  0.166  0.414-   6 2.54   5 2.54   3 2.57   4 2.57   1 2.57   1 2.57   3 2.58   4 2.58
                             7 2.59
   3  0.166  0.667  0.414-   6 2.54   8 2.54   2 2.57   4 2.57   1 2.57   1 2.57   2 2.58   4 2.58
                             7 2.59
   4  0.667  0.667  0.414-   8 2.54   5 2.54   3 2.57   2 2.57   1 2.57   1 2.57   3 2.58   2 2.58
                             7 2.59
   5  0.834  0.333  0.499-  12 2.48   1 2.52   4 2.54   2 2.54   8 2.56   6 2.56   7 2.57   7 2.57
                             8 2.58   6 2.58  11 2.63   9 2.63
   6  0.333  0.333  0.499-  12 2.48   1 2.52   2 2.54   3 2.54   5 2.56   8 2.56   7 2.57   7 2.57
                             5 2.58   8 2.58  11 2.63  10 2.63
   7  0.833  0.833  0.502-  10 2.53  11 2.53   9 2.53   8 2.57   5 2.57   6 2.57   6 2.57   8 2.57
                             5 2.57   4 2.59   3 2.59   2 2.59
   8  0.333  0.834  0.499-  12 2.48   1 2.52   4 2.54   3 2.54   5 2.56   6 2.56   7 2.57   7 2.57
                             5 2.58   6 2.58  10 2.63   9 2.63
   9  0.994  0.994  0.588-  13 1.89  10 2.47  11 2.47   7 2.53  12 2.58  12 2.58   8 2.63   5 2.63
                            10 2.67  11 2.67
  10  0.513  0.994  0.588-  13 1.89  11 2.47   9 2.47   7 2.53  12 2.58  12 2.58   8 2.63   6 2.63
                            11 2.67   9 2.67
  11  0.994  0.513  0.588-  13 1.89  10 2.47   9 2.47   7 2.53  12 2.58  12 2.58   5 2.63   6 2.63
                            10 2.67   9 2.67
  12  0.500  0.500  0.581-   6 2.48   5 2.48   8 2.48  11 2.58  10 2.58   9 2.58   9 2.58  11 2.58
                            10 2.58
  13  0.167  0.167  0.633-  10 1.89  11 1.89   9 1.89

  LATTYP: Found a hexagonal cell.
 ALAT       =     5.1420805075
 C/A-ratio  =     4.7059728304

  Lattice vectors:

 A1 = (   2.5710402500,  -4.4531723500,   0.0000000000)
 A2 = (  -5.1420805100,   0.0000000000,   0.0000000000)
 A3 = (   0.0000000000,   0.0000000000, -24.1984911600)

Analysis of symmetry for initial positions (statically):
 Subroutine PRICEL returns:
 Original cell was already a primitive cell.

 Routine SETGRP: Setting up the symmetry group for a
 hexagonal supercell.

 Subroutine GETGRP returns: Found  6 space group operations
 (whereof  2 operations were pure point group operations)
 out of a pool of 24 trial point group operations.

The static configuration has the point symmetry C_1h.
 The point group associated with its full space group is C_3v.

Analysis of symmetry for dynamics (positions and initial velocities):
 Subroutine PRICEL returns:
 Original cell was already a primitive cell.

 Routine SETGRP: Setting up the symmetry group for a
 hexagonal supercell.

 Subroutine GETGRP returns: Found  6 space group operations
 (whereof  2 operations were pure point group operations)
 out of a pool of 24 trial point group operations.

The dynamic configuration has the point symmetry C_1h.
 The point group associated with its full space group is C_3v.

 Subroutine INISYM returns: Found  6 space group operations
 (whereof  2 operations are pure point group operations),
 and found     1 'primitive' translations

 KPOINTS: KPOINTS created by Atomic Simulation Env

Automatic generation of k-mesh.
Space group operators:
 irot       det(A)        alpha          n_x          n_y          n_z        tau_x        tau_y        tau_z
    1     1.000000     0.000000     1.000000     0.000000     0.000000     0.000000     0.000000     0.000000
    2    -1.000000   180.000000     0.500000    -0.866025     0.000000     0.000000     0.000000     0.000000
    3     1.000000   120.000000     0.000000     0.000000     1.000000     0.000000    -0.500000     0.000000
    4     1.000000   120.000000     0.000000     0.000000    -1.000000    -0.500000     0.000000     0.000000
    5    -1.000000   180.000000     1.000000    -0.000000     0.000000    -0.500000     0.000000     0.000000
    6    -1.000000   179.999999    -0.500000    -0.866025     0.000000     0.000000    -0.500000     0.000000

 Subroutine IBZKPT returns following result:

 Found     12 irreducible k-points:

 Following reciprocal coordinates:
            Coordinates               Weight
  0.000000  0.000000  0.000000      1.000000
  0.111111  0.000000  0.000000      6.000000
  0.222222  0.000000  0.000000      6.000000
  0.333333 -0.000000  0.000000      6.000000
  0.444444  0.000000  0.000000      6.000000
  0.222222  0.111111  0.000000      6.000000
  0.333333  0.111111  0.000000     12.000000
  0.444444  0.111111  0.000000     12.000000
 -0.444444  0.111111  0.000000      6.000000
  0.444444  0.222222  0.000000      6.000000
 -0.444444  0.222222  0.000000     12.000000
 -0.333333  0.333333  0.000000      2.000000

 Following cartesian coordinates:
            Coordinates               Weight
  0.000000  0.000000  0.000000      1.000000
  0.021608 -0.012476  0.000000      6.000000
  0.043216 -0.024951  0.000000      6.000000
  0.064825 -0.037427  0.000000      6.000000
  0.086433 -0.049902  0.000000      6.000000
  0.043216 -0.000000  0.000000      6.000000
  0.064825 -0.012476  0.000000     12.000000
  0.086433 -0.024951  0.000000     12.000000
 -0.086433  0.074853  0.000000      6.000000
  0.086433 -0.000000  0.000000      6.000000
 -0.086433  0.099804  0.000000     12.000000
 -0.064825  0.112280  0.000000      2.000000

 I would recommend the setting:
   dimension x,y,z NGX =    25 NGY =   25 NGZ =  118
 SYSTEM =  unknown system
 POSCAR =  Cu  O

 Startparameter for this run:
   NWRITE =      2    write-flag & timer
   PREC   = normal    normal or accurate (medium, high low for compatibility)
   ISTART =      0    job   : 0-new  1-cont  2-samecut
   ICHARG =      2    charge: 1-file 2-atom 10-const
   ISPIN  =      1    spin polarized calculation?
   LNONCOLLINEAR =      F non collinear calculations
   LSORBIT =      F    spin-orbit coupling
   INIWAV =      1    electr: 0-lowe 1-rand  2-diag
   LASPH  =      F    aspherical Exc in radial PAW
   METAGGA=      F    non-selfconsistent MetaGGA calc.

 Electronic Relaxation 1
   ENCUT  =  400.0 eV  29.40 Ry    5.42 a.u.   8.39  8.39 39.46*2*pi/ulx,y,z
   ENINI  =  400.0     initial cutoff
   ENAUG  =  605.4 eV  augmentation charge cutoff
   NELM   =     60;   NELMIN=  2; NELMDL= -5     # of ELM steps
   EDIFF  = 0.1E-03   stopping-criterion for ELM
   LREAL  =      F    real-space projection
   NLSPLINE    = F    spline interpolate recip. space projectors
   LCOMPAT=      F    compatible to vasp.4.4
   GGA_COMPAT  = T    GGA compatible to vasp.4.4-vasp.4.6
   LMAXPAW     = -100 max onsite density
   LMAXMIX     =    2 max onsite mixed and CHGCAR
   VOSKOWN=      0    Vosko Wilk Nusair interpolation
   ROPT   =    0.00000   0.00000
 Ionic relaxation
   EDIFFG = 0.1E-02   stopping-criterion for IOM
   NSW    =      0    number of steps for IOM
   NBLOCK =      1;   KBLOCK =      1    inner block; outer block
   IBRION =     -1    ionic relax: 0-MD 1-quasi-New 2-CG
   NFREE  =      0    steps in history (QN), initial steepest desc. (CG)
   ISIF   =      2    stress and relaxation
   IWAVPR =     10    prediction:  0-non 1-charg 2-wave 3-comb
   ISYM   =      2    0-nonsym 1-usesym 2-fastsym
   LCORR  =      T    Harris-Foulkes like correction to forces

   POTIM  = 0.5000    time-step for ionic-motion
   TEIN   =    0.0    initial temperature
   TEBEG  =    0.0;   TEEND  =   0.0 temperature during run
   SMASS  =  -3.00    Nose mass-parameter (am)
   estimated Nose-frequenzy (Omega)   =  0.10E-29 period in steps =****** mass=  -0.604E-27a.u.
   SCALEE = 1.0000    scale energy and forces
   NPACO  =    256;   APACO  = 16.0  distance and # of slots for P.C.
   PSTRESS=    0.0 pullay stress

  Mass of Ions in am
   POMASS =  63.55 16.00
  Ionic Valenz
   ZVAL   =  11.00  6.00
  Atomic Wigner-Seitz radii
  virtual crystal weights
   VCA    =   1.00  1.00
   NELECT =     138.0000    total number of electrons
   NUPDOWN=      -1.0000    fix difference up-down

 DOS related values:
   EMIN   =  10.00;   EMAX   =-10.00  energy-range for DOS
   EFERMI =   0.00
   ISMEAR =     1;   SIGMA  =   0.10  broadening in eV -4-tet -1-fermi 0-gaus

 Electronic relaxation 2 (details)
   IALGO  =     38    algorithm
   LDIAG  =      T    sub-space diagonalisation (order eigenvalues)
   LSUBROT=      F    optimize rotation matrix (better conditioning)
   TURBO    =      0    0=normal 1=particle mesh
   IRESTART =      0    0=no restart 2=restart with 2 vectors
   NREBOOT  =      0    no. of reboots
   NMIN     =      0    reboot dimension
   EREF     =   0.00    reference energy to select bands
   IMIX   =      4    mixing-type and parameters
     AMIX     =   0.40;   BMIX     =  1.00
     AMIX_MAG =   1.60;   BMIX_MAG =  1.00
     AMIN     =   0.10
     WC   =   100.;   INIMIX=   1;  MIXPRE=   1;  MAXMIX= -45

 Intra band minimization:
   WEIMIN = 0.0000     energy-eigenvalue tresh-hold
   EBREAK =  0.26E-06  absolut break condition
   DEPER  =   0.30     relativ break condition

   TIME   =   0.40     timestep for ELM

  volume/ion in A,a.u.               =      42.62       287.64
  Fermi-wavevector in a.u.,A,eV,Ry     =   1.029996  1.946411 14.434315  1.060892
  Thomas-Fermi vector in A             =   2.164072

 Write flags
   LWAVE  =      F    write WAVECAR
   LCHARG =      F    write CHGCAR
   LVTOT  =      F    write LOCPOT, total local potential
   LVHAR  =      F    write LOCPOT, Hartree potential only
   LELF   =      F    write electronic localiz. function (ELF)
   LORBIT =     10    0 simple, 1 ext, 2 COOP (PROOUT)

 Dipole corrections
   LMONO  =      F    monopole corrections only (constant potential shift)
   LDIPOL =      F    correct potential (dipole corrections)
   IDIPOL =      0    1-x, 2-y, 3-z, 4-all directions
   EPSILON=  1.0000000 bulk dielectric constant

 Exchange correlation treatment:
   GGA     =    --    GGA type
   VOSKOWN=      0    Vosko Wilk Nusair interpolation
   LHFCALC =     F    Hartree Fock is set to
   LHFONE  =     F    Hartree Fock one center treatment
   AEXX    =    0.0000 exact exchange contribution

 Linear response parameters
   LEPSILON=     F    determine dielectric tensor
[...]
 k-point  7 :   0.3333 0.1111 0.0000  plane waves:   10059
 k-point  8 :   0.4444 0.1111 0.0000  plane waves:   10045
 k-point  9 :  -0.4444 0.1111 0.0000  plane waves:   10036
 k-point 10 :   0.4444 0.2222 0.0000  plane waves:   10078
 k-point 11 :  -0.4444 0.2222 0.0000  plane waves:   10068
 k-point 12 :  -0.3333 0.3333 0.0000  plane waves:   10044

 maximum and minimum number of plane-waves per node :     10129    10036

 maximum number of plane-waves:     10129
 maximum index in each direction:
   IXMAX=    8   IYMAX=    8   IZMAX=   39
   IXMIN=   -8   IYMIN=   -8   IZMIN=  -39

 WARNING: aliasing errors must be expected set NGX to  34 to avoid them
 WARNING: aliasing errors must be expected set NGY to  34 to avoid them
 WARNING: aliasing errors must be expected set NGZ to 158 to avoid them
 aliasing errors are usually negligible using standard VASP settings
 and one can safely disregard these warnings

 serial   3D FFT for wavefunctions
 parallel 3D FFT for charge:
    minimum data exchange during FFTs selected (reduces bandwidth)

 Broyden mixing: mesh for mixing (old mesh)
   NGX = 17   NGY = 17   NGZ = 79
  (NGX  = 56   NGY  = 56   NGZ  =240)
  gives a total of  22831 points

 initial charge density was supplied:
 charge density of overlapping atoms calculated
 number of electron     138.0000000 magnetization
 keeping initial charge density in first step

 Maximum index for augmentation-charges          481 (set IRDMAX)

 First call to EWALD:  gamma=   0.216
 Maximum number of real-space cells 5x 5x 1
 Maximum number of reciprocal cells 2x 2x 7

 FEWALD executed in parallel

----------------------------------------- Iteration    1(   1)  ---------------------------------------

 eigenvalue-minimisations  :  2304
 total energy-change (2. order) : 0.1087393E+04  (-0.5028866E+04)
 number of electron     138.0000000 magnetization
 augmentation part      138.0000000 magnetization

 Free energy of the ion-electron system (eV)
  alpha Z        PSCENC =       204.46100599
  Ewald energy   TEWEN  =     70410.89177291
  -Hartree energ DENC   =    -86577.35992306
  -exchange      EXHF   =         0.00000000
  -V(xc)+E(xc)   XCENC  =       573.35169484
  PAW double counting   =     15085.02939543   -16356.92975307
  entropy T*S    EENTRO =         0.00138265
  eigenvalues    EBANDS =       624.19257092
  atomic energy  EATOM  =     17123.75487843
  Solvation  Ediel_sol  =         0.00000000
  free energy    TOTEN  =      1087.39302504 eV

  energy without entropy =     1087.39164239  energy(sigma->0) =     1087.39256416

[...]

 eigenvalue-minimisations  :  2304
 total energy-change (2. order) :-0.1047940E+04  (-0.9947602E+03)
 number of electron     138.0000000 magnetization
 augmentation part      138.0000000 magnetization

[...]

 Broyden mixing:
  rms(total) = 0.27862E+01    rms(broyden)= 0.27859E+01
  rms(prec ) = 0.29398E+01
  weight for this iteration     100.00

[...]

 eigenvalues of (default mixing * dielectric matrix)
  average eigenvalue GAMMA=   0.5919
  0.5919

[...]

 eigenvalue-minimisations  :  2952
 total energy-change (2. order) : 0.8545086E-04  (-0.1004157E-03)
 number of electron     138.0000137 magnetization
 augmentation part       84.8603869 magnetization

 Broyden mixing:
  rms(total) = 0.52082E-02    rms(broyden)= 0.52026E-02
  rms(prec ) = 0.62081E-02
  weight for this iteration     100.00

 eigenvalues of (default mixing * dielectric matrix)
  average eigenvalue GAMMA=   0.9942
  2.7717  2.3636  1.0137  0.9678  0.9678  0.5908  0.5908  0.2721  0.5740  0.4286
  0.3950

[...]

----------------------------------------- Iteration    1(  17)  ---------------------------------------

 eigenvalue-minimisations  :  2568
 total energy-change (2. order) :-0.5995368E-04  (-0.2842828E-04)
 number of electron     138.0000137 magnetization
 augmentation part       84.8603869 magnetization

 Free energy of the ion-electron system (eV)
  alpha Z        PSCENC =       204.46100599
  Ewald energy   TEWEN  =     70410.89177291
  -Hartree energ DENC   =    -86375.50347082
  -exchange      EXHF   =         0.00000000
  -V(xc)+E(xc)   XCENC  =       562.13265548
  PAW double counting   =     16109.99083590   -17404.67353193
  entropy T*S    EENTRO =        -0.00728603
  eigenvalues    EBANDS =      -678.64643460
  atomic energy  EATOM  =     17123.75487843
  Solvation  Ediel_sol  =         0.00000000
  free energy    TOTEN  =       -47.59957465 eV

  energy without entropy =      -47.59228862  energy(sigma->0) =      -47.59714598

 average (electrostatic) potential at core
  the test charge radii are     0.9430  0.7215
  (the norm of the test charge is              1.0000)
       1 -72.9122       2 -72.7931       3 -72.7931       4 -72.7931       5 -73.0563
       6 -73.0563       7 -73.1693       8 -73.0563       9 -73.0942      10 -73.0942
      11 -73.0942      12 -72.8381      13 -77.4852

 E-fermi :  -1.7596     XC(G=0):  -4.2532     alpha+bet : -3.5686

 k-point     1 :       0.0000    0.0000    0.0000
  band No.  band energies     occupation
      1     -20.1076      2.00000
      2     -10.3217      2.00000
      3      -8.3081      2.00000
      4      -7.1080      2.00000
      5      -7.1080      2.00000
      6      -7.0469      2.00000
      7      -6.6418      2.00000
      8      -6.5007      2.00000
      9      -6.5007      2.00000
     10      -6.4831      2.00000
     11      -6.1547      2.00000
     12      -6.1460      2.00000
     13      -6.1460      2.00000
     14      -5.9241      2.00000
     15      -5.9241      2.00000
     16      -5.8834      2.00000
     17      -5.7124      2.00000
     18      -5.7124      2.00000
     19      -5.2899      2.00000
     20      -5.1751      2.00000
     21      -5.1751      2.00000
     22      -5.0698      2.00000
     23      -4.8528      2.00000
     24      -4.8506      2.00000
     25      -4.8506      2.00000
     26      -4.7657      2.00000
     27      -4.7657      2.00000
     28      -4.6994      2.00000
     29      -4.6367      2.00000
     30      -4.6367      2.00000
     31      -4.5399      2.00000
     32      -4.4927      2.00000
     33      -4.4927      2.00000
     34      -4.4558      2.00000
     35      -4.4557      2.00000
     36      -4.4158      2.00000
     37      -4.3215      2.00000
     38      -4.3215      2.00000
     39      -4.3060      2.00000
     40      -3.9922      2.00000
     41      -3.9835      2.00000
     42      -3.9835      2.00000
     43      -3.8960      2.00000
     44      -3.8960      2.00000
     45      -3.8438      2.00000
     46      -3.8438      2.00000
     47      -3.5791      2.00000
     48      -3.5791      2.00000
     49      -3.5211      2.00000
     50      -3.5145      2.00000
     51      -3.5145      2.00000
     52      -3.5135      2.00000
     53      -3.4729      2.00000
     54      -3.4729      2.00000
     55      -3.4345      2.00000
     56      -3.4227      2.00000
     57      -3.4227      2.00000
     58      -3.3693      2.00000
     59      -3.3646      2.00000
     60      -3.3646      2.00000
[...]
     82       3.3646      0.00000
     83       3.6333      0.00000
     84       4.0701      0.00000
     85       4.0701      0.00000
     86       4.4756      0.00000
     87       4.5536      0.00000
     88       4.8588      0.00000
     89       5.6487      0.00000
     90       5.9305      0.00000
     91       5.9305      0.00000
     92       6.5608      0.00000
     93       6.7774      0.00000
     94       7.4087      0.00000
     95       7.4820      0.00000
     96       7.4820      0.00000

[...]

 k-point    12 :      -0.3333    0.3333    0.0000
  band No.  band energies     occupation
      1     -20.0923      2.00000
      2      -8.2109      2.00000
      3      -8.0875      2.00000
      4      -7.9699      2.00000
      5      -7.0803      2.00000
      6      -7.0100      2.00000
      7      -6.7444      2.00000
      8      -6.3584      2.00000
      9      -6.1456      2.00000
     10      -6.0382      2.00000
     11      -5.6912      2.00000
     12      -5.6470      2.00000
     13      -5.6131      2.00000
     14      -5.5992      2.00000
     15      -5.5655      2.00000
     16      -5.5632      2.00000
     17      -5.4420      2.00000
     18      -5.4289      2.00000
     19      -5.3975      2.00000
     20      -5.3621      2.00000
     21      -5.3443      2.00000
     22      -5.2091      2.00000
     23      -5.1762      2.00000
     24      -5.1269      2.00000
     25      -5.1157      2.00000
     26      -5.0198      2.00000
     27      -4.9190      2.00000
     28      -4.9182      2.00000
     29      -4.8933      2.00000
     30      -4.8822      2.00000
     31      -4.8617      2.00000
     32      -4.8103      2.00000
     33      -4.8025      2.00000
     34      -4.7431      2.00000
     35      -4.5467      2.00000
     36      -4.5160      2.00000
     37      -4.4823      2.00000
     38      -4.4400      2.00000
     39      -4.4134      2.00000
     40      -4.4047      2.00000
     41      -4.3605      2.00000
     42      -4.2713      2.00000
     43      -4.1969      2.00000
     44      -4.1416      2.00000
     45      -4.0728      2.00000
     46      -4.0573      2.00000
     47      -4.0000      2.00000
     48      -3.9697      2.00000
     49      -3.9344      2.00000
     50      -3.9294      2.00000
     51      -3.8835      2.00000
     52      -3.8239      2.00000
     53      -3.7832      2.00000
     54      -3.7565      2.00000
     55      -3.7224      2.00000
     56      -3.6581      2.00000
     57      -3.6023      2.00000
     58      -3.5563      2.00000
     59      -3.5406      2.00000
     60      -3.5285      2.00000
[...]
     82       4.8808      0.00000
     83       4.9201      0.00000
     84       4.9580      0.00000
     85       5.3064      0.00000
     86       5.6093      0.00000
     87       5.6277      0.00000
     88       5.9356      0.00000
     89       6.0395      0.00000
     90       6.0559      0.00000
     91       6.0943      0.00000
     92       6.6044      0.00000
     93       7.0018      0.00000
     94       7.0207      0.00000
     95       7.0856      0.00000
     96       7.0999      0.00000

 soft charge-density along one line, spin component           1
         0         1         2         3         4         5         6         7         8         9
 total charge-density along one line

------------------------ aborting loop because EDIFF is reached ----------------------------------------

 total charge

# of ion     s       p       d       tot
  1        0.440   0.297   9.185   9.922
  2        0.447   0.281   9.190   9.918
  3        0.452   0.284   9.181   9.917
  4        0.452   0.281   9.188   9.922
  5        0.439   0.362   9.184   9.985
  6        0.447   0.357   9.193   9.997
  7        0.433   0.383   9.164   9.980
  8        0.445   0.357   9.199  10.000
  9        0.451   0.383   9.160   9.994
 10        0.437   0.372   9.133   9.943
 11        0.457   0.389   9.181  10.027
 12        0.432   0.278   9.232   9.942
 13        1.604   3.342   0.000   4.946
tot        6.937   7.365 110.191 124.493

  FORCE on cell =-STRESS in cart. coord.  units (eV):
  Direction    XX          YY          ZZ          XY          YZ          ZX
  Alpha Z   204.46101   204.46101   204.46101
  Ewald   79339.96496 79339.96497-88269.05075    -0.00001    -0.00000    -0.00000
  Hartree 83493.42834 83493.42835-80602.82187    -0.00000     0.00000    -0.00000
  E(xc)    -799.87995  -799.87978  -801.81817    -0.00014     0.00000     0.00000
  Local  ************************167394.71820     0.00599    -0.00005    -0.00008
  n-local  -275.75448  -288.00236  -286.95410    -5.58712     0.11357    -0.36457
  augment  1139.80780  1139.81391  1146.95794    -0.00529    -0.00001    -0.00003
  Kinetic  1198.77487  1202.86597  1213.68808     1.97021    -1.41169     1.31548
  Fock        0.00000     0.00000     0.00000     0.00000     0.00000     0.00000
  Total      -2.33063    -2.33063    -0.81967    -0.00000    -0.00000     0.00000
  in kB      -6.73887    -6.73887    -2.37002    -0.00000    -0.00000     0.00000

 VOLUME and BASIS-vectors are now :
  energy-cutoff  :      400.00
  volume of cell :      554.11
      direct lattice vectors                 reciprocal lattice vectors
     5.142080510  0.000000000  0.000000000     0.194473812 -0.112279508  0.000000000
     2.571040260  4.453172350  0.000000000     0.000000000  0.224559016  0.000000000
     0.000000000  0.000000000 24.198491160     0.000000000  0.000000000  0.041324891

  length of vectors
     5.142080510  5.142080513 24.198491160     0.224559016  0.224559016  0.041324891

 FORCES acting on ions
    electron-ion (+dipol)            ewald-force                    non-local-force                 convergence-correction
   0.115E-04 0.667E-05 0.296E+04   -.146E-04 -.847E-05 -.296E+04   0.694E-17 0.000E+00 -.278E+01   0.260E-07 0.150E-07 -.134E+00
   -.580E-05 0.473E+01 0.297E+04   0.143E-04 -.457E+01 -.297E+04   -.181E-09 -.161E+00 -.181E+01   0.432E-07 -.222E-02 -.127E+00
   0.410E+01 -.236E+01 0.297E+04   -.396E+01 0.228E+01 -.297E+04   -.139E+00 0.804E-01 -.181E+01   -.193E-02 0.111E-02 -.127E+00
   -.410E+01 -.236E+01 0.297E+04   0.396E+01 0.228E+01 -.297E+04   0.139E+00 0.804E-01 -.181E+01   0.193E-02 0.111E-02 -.127E+00
   -.939E+01 0.542E+01 0.202E+03   0.918E+01 -.530E+01 -.203E+03   0.206E+00 -.119E+00 0.445E+00   0.511E-02 -.295E-02 0.190E+00
   0.939E+01 0.542E+01 0.202E+03   -.918E+01 -.530E+01 -.203E+03   -.206E+00 -.119E+00 0.445E+00   -.511E-02 -.295E-02 0.190E+00
   0.973E-05 0.562E-05 0.148E+03   0.284E-04 0.164E-04 -.146E+03   0.520E-17 0.694E-17 -.148E+01   0.875E-07 0.505E-07 0.159E+00
   0.508E-05 -.108E+02 0.202E+03   -.263E-04 0.106E+02 -.203E+03   0.267E-09 0.238E+00 0.445E+00   0.992E-07 0.590E-02 0.190E+00
   0.764E+02 0.441E+02 -.264E+04   -.777E+02 -.448E+02 0.264E+04   0.122E+01 0.706E+00 -.200E+00   0.657E-01 0.379E-01 0.344E+00
   -.764E+02 0.441E+02 -.264E+04   0.777E+02 -.448E+02 0.264E+04   -.122E+01 0.706E+00 -.200E+00   -.657E-01 0.379E-01 0.344E+00
   -.473E-06 -.882E+02 -.264E+04   0.903E-05 0.897E+02 0.264E+04   -.159E-08 -.141E+01 -.200E+00   -.495E-06 -.758E-01 0.344E+00
   -.150E-04 -.874E-05 -.256E+04   -.129E-04 -.739E-05 0.256E+04   0.347E-17 -.104E-16 0.557E+01   0.452E-06 0.261E-06 0.338E+00
   0.125E-04 0.708E-05 -.213E+04   -.755E-05 -.419E-05 0.216E+04   0.173E-17 0.347E-17 -.258E+02   -.144E-06 -.832E-07 0.103E+00
   -.208E-04 -.120E-04 0.274E+02   0.373E-13 -.218E-13 0.182E-11   0.116E-15 -.694E-17 -.291E+02   0.352E-06 0.203E-06 0.169E+01

 POSITION                                       TOTAL-FORCE (eV/Angst)
      1.28552      0.74220     10.03915        -0.000000      0.000000     -0.027241
      3.85656      0.73963     10.02042        -0.000000     -0.001456      0.007045
      2.56882      2.97006     10.02042        -0.001261      0.000728      0.007045
      5.14430      2.97006     10.02042         0.001261      0.000728      0.007045
      5.14565      1.48233     12.08361         0.001427     -0.000824     -0.006777
      2.56747      1.48233     12.08361        -0.001427     -0.000824     -0.006777
      6.42760      3.71098     12.14707        -0.000000      0.000000      0.011606
      3.85656      3.71510     12.08361         0.000000      0.001648     -0.006777
      7.66402      4.42482     14.23416         0.025924      0.014967      0.009242
      5.19118      4.42482     14.23416        -0.025924      0.014967      0.009242
      6.42760      2.28328     14.23416        -0.000000     -0.029935      0.009242
      3.85656      2.22659     14.06726        -0.000000      0.000000     -0.003448
      1.28552      0.74220     15.32139        -0.000000      0.000000     -0.009446
    total drift:                               -0.000020     -0.000012     -0.023160

  FREE ENERGIE OF THE ION-ELECTRON SYSTEM (eV)
  free  energy   TOTEN  =       -47.59957465 eV

  energy  without entropy=      -47.59228862  energy(sigma->0) =      -47.59714598

 total charge

# of ion     s       p       d       tot
  1        0.440   0.297   9.185   9.922
  2        0.447   0.281   9.190   9.918
  3        0.452   0.284   9.181   9.917
  4        0.452   0.281   9.188   9.922
  5        0.439   0.362   9.184   9.985
  6        0.447   0.357   9.193   9.997
  7        0.433   0.383   9.164   9.980
  8        0.445   0.357   9.199  10.000
  9        0.451   0.383   9.160   9.994
 10        0.437   0.372   9.133   9.943
 11        0.457   0.389   9.181  10.027
 12        0.432   0.278   9.232   9.942
 13        1.604   3.342   0.000   4.946
tot        6.937   7.365 110.191 124.493