 vasp.5.4.1 05Feb16 (build Feb 08 2018 09:21:51) complex

 executed on             LinuxIFC date 2019.11.21  23:49:26

 INCAR:
 POTCAR:    PAW_PBE Ag 02Apr2005
 POTCAR:    PAW_PBE O 08Apr2002

 POTCAR:    PAW_PBE Ag 02Apr2005
   VRHFIN =Ag : s1 d10

   TITEL  = PAW_PBE Ag 02Apr2005
   POMASS =  107.868; ZVAL   =   11.000    mass and valenz
   ENMAX  =  249.844; ENMIN  =  187.383 eV

 POTCAR:    PAW_PBE O 08Apr2002
   VRHFIN =O: s2p4

   TITEL  = PAW_PBE O 08Apr2002
   POMASS =   16.000; ZVAL   =    6.000    mass and valenz
   ENMAX  =  400.000; ENMIN  =  300.000 eV

  PAW_PBE Ag 02Apr2005                  :
  PAW_PBE O 08Apr2002                   :

 POSCAR: Ag  O
  positions in cartesian coordinates
 exchange correlation table for  LEXCH =        8
   RHO(1)=    0.500       N(1)  =     2000
   RHO(2)=  100.500       N(2)  =     4000

 ion  position               nearest neighbor table
   1  0.167  0.167  0.405-   6 2.89   5 2.89   8 2.89   2 2.93   3 2.93   4 2.93   4 2.93   2 2.93
                             3 2.93
   2  0.667  0.166  0.404-   6 2.92   5 2.92   3 2.93   4 2.93   1 2.93   1 2.93   3 2.94   4 2.94
                             7 2.96
   3  0.166  0.667  0.404-   6 2.92   8 2.92   4 2.93   2 2.93   1 2.93   1 2.93   4 2.94   2 2.94
                             7 2.96
   4  0.667  0.667  0.404-   8 2.92   5 2.92   3 2.93   2 2.93   1 2.93   1 2.93   3 2.94   2 2.94
                             7 2.96
   5  0.834  0.333  0.500-  12 2.86   1 2.89   4 2.92   2 2.92   6 2.93   8 2.93   7 2.93   7 2.93
                             6 2.94   8 2.94   9 2.97  11 2.97
   6  0.333  0.333  0.500-  12 2.86   1 2.89   2 2.92   3 2.92   5 2.93   8 2.93   7 2.93   7 2.93
                             5 2.94   8 2.94  11 2.97  10 2.97
   7  0.833  0.833  0.501-  10 2.87  11 2.87   9 2.87   8 2.93   5 2.93   6 2.93   6 2.93   8 2.93
                             5 2.93   3 2.96   4 2.96   2 2.96
   8  0.333  0.834  0.500-  12 2.86   1 2.89   4 2.92   3 2.92   6 2.93   5 2.93   7 2.93   7 2.93
                             5 2.94   6 2.94   9 2.97  10 2.97
   9  0.992  0.992  0.597-  13 2.13  10 2.80  11 2.80   7 2.87  12 2.94  12 2.94   8 2.97   5 2.97
                            10 3.07  11 3.07
  10  0.515  0.992  0.597-  13 2.13   9 2.80  11 2.80   7 2.87  12 2.94  12 2.94   6 2.97   8 2.97
                             9 3.07  11 3.07
  11  0.992  0.515  0.597-  13 2.13  10 2.80   9 2.80   7 2.87  12 2.94  12 2.94   6 2.97   5 2.97
                            10 3.07   9 3.07
  12  0.500  0.500  0.593-   5 2.86   6 2.86   8 2.86  11 2.94  10 2.94   9 2.94   9 2.94  11 2.94
                            10 2.94
  13  0.167  0.167  0.645-   9 2.13  10 2.13  11 2.13

  LATTYP: Found a hexagonal cell.
 ALAT       =     5.8647436409
 C/A-ratio  =     4.2267053170

  Lattice vectors:

 A1 = (   2.9323718200,  -5.0790169800,   0.0000000000)
 A2 = (  -5.8647436400,   0.0000000000,   0.0000000000)
 A3 = (   0.0000000000,   0.0000000000, -24.7885431300)

Analysis of symmetry for initial positions (statically):
 Subroutine PRICEL returns:
 Original cell was already a primitive cell.

 Routine SETGRP: Setting up the symmetry group for a
 hexagonal supercell.

 Subroutine GETGRP returns: Found  6 space group operations
 (whereof  2 operations were pure point group operations)
 out of a pool of 24 trial point group operations.

The static configuration has the point symmetry C_1h.
 The point group associated with its full space group is C_3v.

Analysis of symmetry for dynamics (positions and initial velocities):
 Subroutine PRICEL returns:
 Original cell was already a primitive cell.

 Routine SETGRP: Setting up the symmetry group for a
 hexagonal supercell.

 Subroutine GETGRP returns: Found  6 space group operations
 (whereof  2 operations were pure point group operations)
 out of a pool of 24 trial point group operations.

The dynamic configuration has the point symmetry C_1h.
 The point group associated with its full space group is C_3v.

 Subroutine INISYM returns: Found  6 space group operations
 (whereof  2 operations are pure point group operations),
 and found     1 'primitive' translations

 KPOINTS: KPOINTS created by Atomic Simulation Env

Automatic generation of k-mesh.
Space group operators:
 irot       det(A)        alpha          n_x          n_y          n_z        tau_x        tau_y        tau_z
    1     1.000000     0.000000     1.000000     0.000000     0.000000     0.000000     0.000000     0.000000
    2    -1.000000   180.000000     0.500000    -0.866025     0.000000     0.000000     0.000000     0.000000
    3     1.000000   120.000000     0.000000     0.000000     1.000000    -0.000000    -0.500000     0.000000
    4     1.000000   120.000000     0.000000     0.000000    -1.000000    -0.500000     0.000000     0.000000
    5    -1.000000   180.000000     1.000000     0.000000     0.000000    -0.500000     0.000000     0.000000
    6    -1.000000   180.000000    -0.500000    -0.866025     0.000000    -0.000000    -0.500000     0.000000

 Subroutine IBZKPT returns following result:

 Found     12 irreducible k-points:

 Following reciprocal coordinates:
            Coordinates               Weight
  0.000000  0.000000  0.000000      1.000000
  0.111111  0.000000  0.000000      6.000000
  0.222222 -0.000000  0.000000      6.000000
  0.333333 -0.000000  0.000000      6.000000
  0.444444 -0.000000  0.000000      6.000000
  0.222222  0.111111  0.000000      6.000000
  0.333333  0.111111  0.000000     12.000000
  0.444444  0.111111  0.000000     12.000000
 -0.444444  0.111111  0.000000      6.000000
  0.444444  0.222222  0.000000      6.000000
 -0.444444  0.222222  0.000000     12.000000
 -0.333333  0.333333  0.000000      2.000000

 Following cartesian coordinates:
            Coordinates               Weight
  0.000000  0.000000  0.000000      1.000000
  0.018946 -0.010938  0.000000      6.000000
  0.037891 -0.021876  0.000000      6.000000
  0.056837 -0.032815  0.000000      6.000000
  0.075782 -0.043753  0.000000      6.000000
  0.037891 -0.000000  0.000000      6.000000
  0.056837 -0.010938  0.000000     12.000000
  0.075782 -0.021876  0.000000     12.000000
 -0.075782  0.065629  0.000000      6.000000
  0.075782  0.000000  0.000000      6.000000
 -0.075782  0.087506  0.000000     12.000000
 -0.056837  0.098444  0.000000      2.000000

 I would recommend the setting:
   dimension x,y,z NGX =    29 NGY =   29 NGZ =  121
 SYSTEM =  unknown system
 POSCAR =  Ag  O

 Startparameter for this run:
   NWRITE =      2    write-flag & timer
   PREC   = normal    normal or accurate (medium, high low for compatibility)
   ISTART =      0    job   : 0-new  1-cont  2-samecut
   ICHARG =      2    charge: 1-file 2-atom 10-const
   ISPIN  =      1    spin polarized calculation?
   LNONCOLLINEAR =      F non collinear calculations
   LSORBIT =      F    spin-orbit coupling
   INIWAV =      1    electr: 0-lowe 1-rand  2-diag
   LASPH  =      F    aspherical Exc in radial PAW
   METAGGA=      F    non-selfconsistent MetaGGA calc.

 Electronic Relaxation 1
   ENCUT  =  400.0 eV  29.40 Ry    5.42 a.u.   9.56  9.56 40.42*2*pi/ulx,y,z
   ENINI  =  400.0     initial cutoff
   ENAUG  =  605.4 eV  augmentation charge cutoff
   NELM   =     60;   NELMIN=  2; NELMDL= -5     # of ELM steps
   EDIFF  = 0.1E-03   stopping-criterion for ELM
   LREAL  =      F    real-space projection
   NLSPLINE    = F    spline interpolate recip. space projectors
   LCOMPAT=      F    compatible to vasp.4.4
   GGA_COMPAT  = T    GGA compatible to vasp.4.4-vasp.4.6
   LMAXPAW     = -100 max onsite density
   LMAXMIX     =    2 max onsite mixed and CHGCAR
   VOSKOWN=      0    Vosko Wilk Nusair interpolation
   ROPT   =    0.00000   0.00000
 Ionic relaxation
   EDIFFG = 0.1E-02   stopping-criterion for IOM
   NSW    =      0    number of steps for IOM
   NBLOCK =      1;   KBLOCK =      1    inner block; outer block
   IBRION =     -1    ionic relax: 0-MD 1-quasi-New 2-CG
   NFREE  =      0    steps in history (QN), initial steepest desc. (CG)
   ISIF   =      2    stress and relaxation
   IWAVPR =     10    prediction:  0-non 1-charg 2-wave 3-comb
   ISYM   =      2    0-nonsym 1-usesym 2-fastsym
   LCORR  =      T    Harris-Foulkes like correction to forces

   POTIM  = 0.5000    time-step for ionic-motion
   TEIN   =    0.0    initial temperature
   TEBEG  =    0.0;   TEEND  =   0.0 temperature during run
   SMASS  =  -3.00    Nose mass-parameter (am)
   estimated Nose-frequenzy (Omega)   =  0.10E-29 period in steps =****** mass=  -0.786E-27a.u.
   SCALEE = 1.0000    scale energy and forces
   NPACO  =    256;   APACO  = 16.0  distance and # of slots for P.C.
   PSTRESS=    0.0 pullay stress

  Mass of Ions in am
   POMASS = 107.87 16.00
  Ionic Valenz
   ZVAL   =  11.00  6.00
  Atomic Wigner-Seitz radii
  virtual crystal weights
   VCA    =   1.00  1.00
   NELECT =     138.0000    total number of electrons
   NUPDOWN=      -1.0000    fix difference up-down

 DOS related values:
   EMIN   =  10.00;   EMAX   =-10.00  energy-range for DOS
   EFERMI =   0.00
   ISMEAR =     1;   SIGMA  =   0.10  broadening in eV -4-tet -1-fermi 0-gaus

 Electronic relaxation 2 (details)
   IALGO  =     38    algorithm
   LDIAG  =      T    sub-space diagonalisation (order eigenvalues)
   LSUBROT=      F    optimize rotation matrix (better conditioning)
   TURBO    =      0    0=normal 1=particle mesh
   IRESTART =      0    0=no restart 2=restart with 2 vectors
   NREBOOT  =      0    no. of reboots
   NMIN     =      0    reboot dimension
   EREF     =   0.00    reference energy to select bands
   IMIX   =      4    mixing-type and parameters
     AMIX     =   0.40;   BMIX     =  1.00
     AMIX_MAG =   1.60;   BMIX_MAG =  1.00
     AMIN     =   0.10
     WC   =   100.;   INIMIX=   1;  MIXPRE=   1;  MAXMIX= -45

 Intra band minimization:
   WEIMIN = 0.0000     energy-eigenvalue tresh-hold
   EBREAK =  0.26E-06  absolut break condition
   DEPER  =   0.30     relativ break condition

   TIME   =   0.40     timestep for ELM

  volume/ion in A,a.u.               =      56.80       383.29
  Fermi-wavevector in a.u.,A,eV,Ry     =   0.935997  1.768779 11.919943  0.876091
  Thomas-Fermi vector in A             =   2.062962

 Write flags
   LWAVE  =      F    write WAVECAR
   LCHARG =      F    write CHGCAR
   LVTOT  =      F    write LOCPOT, total local potential
   LVHAR  =      F    write LOCPOT, Hartree potential only
   LELF   =      F    write electronic localiz. function (ELF)
   LORBIT =     10    0 simple, 1 ext, 2 COOP (PROOUT)

 Dipole corrections
   LMONO  =      F    monopole corrections only (constant potential shift)
   LDIPOL =      F    correct potential (dipole corrections)
   IDIPOL =      0    1-x, 2-y, 3-z, 4-all directions
   EPSILON=  1.0000000 bulk dielectric constant

 Exchange correlation treatment:
   GGA     =    --    GGA type
   VOSKOWN=      0    Vosko Wilk Nusair interpolation
   LHFCALC =     F    Hartree Fock is set to
   LHFONE  =     F    Hartree Fock one center treatment
   AEXX    =    0.0000 exact exchange contribution

 Linear response parameters
   LEPSILON=     F    determine dielectric tensor
[...]
 k-point  7 :   0.3333 0.1111 0.0000  plane waves:   13414
 k-point  8 :   0.4444 0.1111 0.0000  plane waves:   13388
 k-point  9 :  -0.4444 0.1111 0.0000  plane waves:   13372
 k-point 10 :   0.4444 0.2222 0.0000  plane waves:   13410
 k-point 11 :  -0.4444 0.2222 0.0000  plane waves:   13394
 k-point 12 :  -0.3333 0.3333 0.0000  plane waves:   13428

 maximum and minimum number of plane-waves per node :     13497    13372

 maximum number of plane-waves:     13497
 maximum index in each direction:
   IXMAX=   10   IYMAX=    9   IZMAX=   40
   IXMIN=  -10   IYMIN=   -9   IZMIN=  -40

 WARNING: aliasing errors must be expected set NGX to  42 to avoid them
 WARNING: aliasing errors must be expected set NGY to  38 to avoid them
 WARNING: aliasing errors must be expected set NGZ to 162 to avoid them
 aliasing errors are usually negligible using standard VASP settings
 and one can safely disregard these warnings

 serial   3D FFT for wavefunctions
 parallel 3D FFT for charge:
    minimum data exchange during FFTs selected (reduces bandwidth)

 Broyden mixing: mesh for mixing (old mesh)
   NGX = 19   NGY = 19   NGZ = 81
  (NGX  = 60   NGY  = 60   NGZ  =252)
  gives a total of  29241 points

 initial charge density was supplied:
 charge density of overlapping atoms calculated
 number of electron     138.0000000 magnetization
 keeping initial charge density in first step

 Maximum index for augmentation-charges          590 (set IRDMAX)

 First call to EWALD:  gamma=   0.196
 Maximum number of real-space cells 5x 5x 1
 Maximum number of reciprocal cells 2x 2x 7

 FEWALD executed in parallel

----------------------------------------- Iteration    1(   1)  ---------------------------------------

 eigenvalue-minimisations  :  2304
 total energy-change (2. order) : 0.7405295E+03  (-0.5275649E+04)
 number of electron     138.0000000 magnetization
 augmentation part      138.0000000 magnetization

 Free energy of the ion-electron system (eV)
  alpha Z        PSCENC =       177.74950859
  Ewald energy   TEWEN  =     49279.48186214
  -Hartree energ DENC   =    -62155.72167842
  -exchange      EXHF   =         0.00000000
  -V(xc)+E(xc)   XCENC  =      -101.63545899
  PAW double counting   =     12388.09526881   -11836.53943832
  entropy T*S    EENTRO =        -0.00073197
  eigenvalues    EBANDS =       109.73585497
  atomic energy  EATOM  =     12879.36433655
  Solvation  Ediel_sol  =         0.00000000
  free energy    TOTEN  =       740.52952336 eV

  energy without entropy =      740.53025533  energy(sigma->0) =      740.52976735

[...]

 eigenvalue-minimisations  :  2640
 total energy-change (2. order) :-0.7484511E+03  (-0.7062518E+03)
 number of electron     138.0000000 magnetization
 augmentation part      138.0000000 magnetization

[...]

 Broyden mixing:
  rms(total) = 0.19053E+01    rms(broyden)= 0.19050E+01
  rms(prec ) = 0.19989E+01
  weight for this iteration     100.00

[...]

 eigenvalues of (default mixing * dielectric matrix)
  average eigenvalue GAMMA=   0.5083
  0.5083

[...]

 eigenvalue-minimisations  :  2616
 total energy-change (2. order) : 0.2233149E-01  (-0.1582304E-01)
 number of electron     138.0000170 magnetization
 augmentation part       63.7665768 magnetization

[...]

 Broyden mixing:
  rms(total) = 0.37810E-03    rms(broyden)= 0.37373E-03
  rms(prec ) = 0.54016E-03
  weight for this iteration     100.00

 eigenvalues of (default mixing * dielectric matrix)
  average eigenvalue GAMMA=   1.4347
  4.0511  2.6592  2.3722  1.5151  1.5151  0.3658  1.0269  1.0269  0.9463  0.9463
  0.6862  0.7697  0.7697

[...]

----------------------------------------- Iteration    1(  19)  ---------------------------------------

 eigenvalue-minimisations  :  1656
 total energy-change (2. order) :-0.5268548E-04  (-0.4196935E-06)
 number of electron     138.0000169 magnetization
 augmentation part       63.7787328 magnetization

 Free energy of the ion-electron system (eV)
  alpha Z        PSCENC =       177.74950859
  Ewald energy   TEWEN  =     49279.48186214
  -Hartree energ DENC   =    -62042.79831790
  -exchange      EXHF   =         0.00000000
  -V(xc)+E(xc)   XCENC  =      -105.60723259
  PAW double counting   =     13611.75674840   -13086.78641409
  entropy T*S    EENTRO =        -0.00387103
  eigenvalues    EBANDS =      -748.39423657
  atomic energy  EATOM  =     12879.36433655
  Solvation  Ediel_sol  =         0.00000000
  free energy    TOTEN  =       -35.23761650 eV

  energy without entropy =      -35.23374547  energy(sigma->0) =      -35.23632615

 average (electrostatic) potential at core
  the test charge radii are     1.1249  0.7215
  (the norm of the test charge is              1.0000)
       1 -80.2063       2 -80.0876       3 -80.0876       4 -80.0876       5 -80.3311
       6 -80.3311       7 -80.3767       8 -80.3311       9 -80.0656      10 -80.0656
      11 -80.0656      12 -80.1900      13 -76.2215

 E-fermi :  -1.1850     XC(G=0):  -4.2352     alpha+bet : -3.8318

 k-point     1 :       0.0000    0.0000    0.0000
  band No.  band energies     occupation
      1     -18.4307      2.00000
      2      -8.0842      2.00000
      3      -7.2141      2.00000
      4      -7.2100      2.00000
      5      -7.2100      2.00000
      6      -7.1957      2.00000
      7      -7.0714      2.00000
      8      -7.0714      2.00000
      9      -7.0654      2.00000
     10      -7.0238      2.00000
     11      -6.9222      2.00000
     12      -6.9222      2.00000
     13      -6.8673      2.00000
     14      -6.7721      2.00000
     15      -6.7721      2.00000
     16      -6.7471      2.00000
     17      -6.2841      2.00000
     18      -6.2840      2.00000
     19      -5.9769      2.00000
     20      -5.9769      2.00000
     21      -5.9580      2.00000
     22      -5.9306      2.00000
     23      -5.8562      2.00000
     24      -5.8562      2.00000
     25      -5.8483      2.00000
     26      -5.8167      2.00000
     27      -5.8167      2.00000
     28      -5.6519      2.00000
     29      -5.6519      2.00000
     30      -5.5601      2.00000
     31      -5.5453      2.00000
     32      -5.5453      2.00000
     33      -5.1505      2.00000
     34      -5.1363      2.00000
     35      -5.1363      2.00000
     36      -4.9930      2.00000
     37      -4.9491      2.00000
     38      -4.9491      2.00000
     39      -4.8763      2.00000
     40      -4.8763      2.00000
     41      -4.7951      2.00000
     42      -4.7140      2.00000
     43      -4.7140      2.00000
     44      -4.6028      2.00000
     45      -4.5913      2.00000
     46      -4.5913      2.00000
     47      -4.4157      2.00000
     48      -4.4157      2.00000
     49      -4.3089      2.00000
     50      -4.2934      2.00000
     51      -4.2934      2.00000
     52      -4.2478      2.00000
     53      -4.1916      2.00000
     54      -4.1916      2.00000
     55      -4.1722      2.00000
     56      -4.1722      2.00000
     57      -4.1560      2.00000
     58      -4.0072      2.00000
     59      -4.0072      2.00000
     60      -3.9661      2.00000
[...]
     82       3.8899      0.00000
     83       3.8899      0.00000
     84       3.9600      0.00000
     85       3.9936      0.00000
     86       4.3733      0.00000
     87       4.8886      0.00000
     88       5.3841      0.00000
     89       5.4736      0.00000
     90       5.4843      0.00000
     91       5.4843      0.00000
     92       6.8600      0.00000
     93       7.1127      0.00000
     94       7.2133      0.00000
     95       7.2133      0.00000
     96       7.2986      0.00000

[...]

 k-point    12 :      -0.3333    0.3333    0.0000
  band No.  band energies     occupation
      1     -18.4214      2.00000
      2      -7.0378      2.00000
      3      -6.7102      2.00000
      4      -6.6996      2.00000
      5      -6.5301      2.00000
      6      -6.5265      2.00000
      7      -6.5164      2.00000
      8      -6.4991      2.00000
      9      -6.4872      2.00000
     10      -6.4545      2.00000
     11      -6.4337      2.00000
     12      -6.4104      2.00000
     13      -6.4046      2.00000
     14      -6.4011      2.00000
     15      -6.3792      2.00000
     16      -6.3397      2.00000
     17      -6.2185      2.00000
     18      -6.1514      2.00000
     19      -6.1132      2.00000
     20      -6.0739      2.00000
     21      -5.9962      2.00000
     22      -5.9032      2.00000
     23      -5.9001      2.00000
     24      -5.8243      2.00000
     25      -5.8192      2.00000
     26      -5.7364      2.00000
     27      -5.7311      2.00000
     28      -5.7087      2.00000
     29      -5.7086      2.00000
     30      -5.6608      2.00000
     31      -5.6589      2.00000
     32      -5.5740      2.00000
     33      -5.5440      2.00000
     34      -5.5274      2.00000
     35      -5.4242      2.00000
     36      -5.4201      2.00000
     37      -5.4008      2.00000
     38      -5.3842      2.00000
     39      -5.3778      2.00000
     40      -5.3194      2.00000
     41      -5.2560      2.00000
     42      -5.1450      2.00000
     43      -4.9784      2.00000
     44      -4.9425      2.00000
     45      -4.9198      2.00000
     46      -4.8920      2.00000
     47      -4.8841      2.00000
     48      -4.7872      2.00000
     49      -4.7771      2.00000
     50      -4.6879      2.00000
     51      -4.6739      2.00000
     52      -4.5298      2.00000
     53      -4.5112      2.00000
     54      -4.4484      2.00000
     55      -4.4327      2.00000
     56      -4.4181      2.00000
     57      -4.3817      2.00000
     58      -4.3435      2.00000
     59      -4.3118      2.00000
     60      -4.2865      2.00000
[...]
     82       4.6956      0.00000
     83       4.9104      0.00000
     84       4.9250      0.00000
     85       5.0834      0.00000
     86       5.6844      0.00000
     87       5.6852      0.00000
     88       5.8396      0.00000
     89       5.9407      0.00000
     90       5.9511      0.00000
     91       5.9536      0.00000
     92       6.2848      0.00000
     93       6.5832      0.00000
     94       6.9154      0.00000
     95       6.9777      0.00000
     96       7.0088      0.00000

 soft charge-density along one line, spin component           1
         0         1         2         3         4         5         6         7         8         9
 total charge-density along one line

------------------------ aborting loop because EDIFF is reached ----------------------------------------

 total charge

# of ion     s       p       d       tot
  1        0.401   0.215   9.179   9.795
  2        0.413   0.200   9.180   9.793
  3        0.425   0.202   9.174   9.801
  4        0.419   0.200   9.179   9.798
  5        0.402   0.260   9.171   9.834
  6        0.411   0.258   9.176   9.845
  7        0.397   0.285   9.153   9.834
  8        0.409   0.258   9.178   9.845
  9        0.413   0.277   9.148   9.838
 10        0.397   0.270   9.142   9.809
 11        0.419   0.283   9.158   9.859
 12        0.382   0.194   9.217   9.792
 13        1.610   3.274   0.000   4.884
tot        6.497   6.176 110.054 122.728

  FORCE on cell =-STRESS in cart. coord.  units (eV):
  Direction    XX          YY          ZZ          XY          YZ          ZX
  Alpha Z   177.74951   177.74951   177.74951
  Ewald   57127.85514 57127.85514-64976.24140    -0.00000    -0.00000    -0.00001
  Hartree 60314.56443 60314.56443-58586.32946    -0.00000    -0.00000    -0.00000
  E(xc)    -725.17127  -725.17125  -727.51997    -0.00002     0.00001     0.00001
  Local  ************************121354.85003     0.00108    -0.00008    -0.00015
  n-local  -123.72562  -140.51630  -135.04098    -7.58680     0.09669    -0.45287
  augment  1109.42642  1109.42700  1114.46707    -0.00050     0.00001     0.00002
  Kinetic  1760.05053  1764.83390  1776.64748     2.16356    -1.28571     1.16428
  Fock        0.00000     0.00000     0.00000     0.00000     0.00000     0.00000
  Total      -2.31021    -2.31021    -1.41773     0.00000    -0.00000     0.00000
  in kB      -5.01283    -5.01283    -3.07627     0.00000    -0.00000     0.00000

 VOLUME and BASIS-vectors are now :
  energy-cutoff  :      400.00
  volume of cell :      738.38
      direct lattice vectors                 reciprocal lattice vectors
     5.864743640  0.000000000  0.000000000     0.170510437 -0.098444247  0.000000000
     2.932371820  5.079016980  0.000000000     0.000000000  0.196888493  0.000000000
     0.000000000  0.000000000 24.788543130     0.000000000  0.000000000  0.040341217

  length of vectors
     5.864743640  5.864743641 24.788543130     0.196888493  0.196888493  0.040341217

 FORCES acting on ions
    electron-ion (+dipol)            ewald-force                    non-local-force                 convergence-correction
   0.357E-05 0.207E-05 0.217E+04   -.208E-04 -.120E-04 -.217E+04   0.104E-16 0.694E-17 -.224E+01   -.244E-07 -.141E-07 0.606E-02
   0.110E-04 0.213E+01 0.219E+04   0.182E-04 -.200E+01 -.219E+04   0.434E-17 -.118E+00 -.155E+01   0.254E-07 0.802E-03 0.405E-02
   0.184E+01 -.106E+01 0.219E+04   -.173E+01 0.100E+01 -.219E+04   -.102E+00 0.590E-01 -.155E+01   0.695E-03 -.401E-03 0.405E-02
   -.184E+01 -.106E+01 0.219E+04   0.173E+01 0.100E+01 -.219E+04   0.102E+00 0.590E-01 -.155E+01   -.695E-03 -.401E-03 0.405E-02
   -.236E+01 0.136E+01 0.146E+03   0.228E+01 -.132E+01 -.147E+03   0.782E-01 -.451E-01 0.270E+00   -.189E-02 0.109E-02 -.617E-02
   0.236E+01 0.136E+01 0.146E+03   -.228E+01 -.132E+01 -.147E+03   -.782E-01 -.451E-01 0.270E+00   0.189E-02 0.109E-02 -.617E-02
   0.115E-04 0.663E-05 0.133E+03   0.111E-04 0.638E-05 -.131E+03   -.347E-17 0.000E+00 -.150E+01   0.149E-07 0.860E-08 -.393E-02
   0.140E-04 -.273E+01 0.146E+03   -.939E-05 0.264E+01 -.147E+03   -.520E-17 0.903E-01 0.270E+00   -.130E-07 -.219E-02 -.617E-02
   0.582E+02 0.336E+02 -.193E+04   -.582E+02 -.336E+02 0.193E+04   -.266E-01 -.154E-01 -.289E+00   -.198E-03 -.114E-03 -.106E-01
   -.582E+02 0.336E+02 -.193E+04   0.582E+02 -.336E+02 0.193E+04   0.266E-01 -.154E-01 -.289E+00   0.198E-03 -.114E-03 -.106E-01
   0.833E-05 -.673E+02 -.193E+04   -.743E-05 0.672E+02 0.193E+04   -.976E-17 0.307E-01 -.289E+00   0.164E-07 0.229E-03 -.106E-01
   0.230E-05 0.131E-05 -.194E+04   0.100E-04 0.581E-05 0.193E+04   0.000E+00 0.000E+00 0.378E+01   0.863E-08 0.498E-08 -.144E-01
   0.331E-04 0.191E-04 -.156E+04   -.120E-05 -.647E-06 0.158E+04   0.191E-16 0.173E-17 -.212E+02   -.463E-08 -.267E-08 -.141E-02
   0.133E-03 0.766E-04 0.259E+02   -.503E-14 -.635E-14 0.909E-12   -.455E-17 -.399E-16 -.259E+02   0.428E-07 0.247E-07 -.518E-01

 POSITION                                       TOTAL-FORCE (eV/Angst)
      1.46619      0.84650     10.04627        -0.000000      0.000000      0.010275
      4.39856      0.84458     10.00664        -0.000000      0.008893      0.013484
      2.93071      3.38697     10.00664         0.007701     -0.004446      0.013484
      5.86641      3.38697     10.00664        -0.007701     -0.004446      0.013484
      5.86623      1.69215     12.38417        -0.004011      0.002316     -0.015034
      2.93089      1.69215     12.38417         0.004011      0.002316     -0.015034
      7.33093      4.23251     12.43020        -0.000000      0.000000      0.008806
      4.39856      4.23423     12.38417        -0.000000     -0.004632     -0.015034
      8.73077      5.04071     14.79961         0.008590      0.004959      0.018268
      5.93109      5.04071     14.79961        -0.008590      0.004959      0.018268
      7.33093      2.61612     14.79961        -0.000000     -0.009918      0.018268
      4.39856      2.53951     14.69343        -0.000000      0.000000     -0.055875
      1.46619      0.84650     15.97860         0.000000      0.000000     -0.013363
    total drift:                                0.000133      0.000077     -0.002582

  FREE ENERGIE OF THE ION-ELECTRON SYSTEM (eV)
  free  energy   TOTEN  =       -35.23761650 eV

  energy  without entropy=      -35.23374547  energy(sigma->0) =      -35.23632615

 total charge

# of ion     s       p       d       tot
  1        0.401   0.215   9.179   9.795
  2        0.413   0.200   9.180   9.793
  3        0.425   0.202   9.174   9.801
  4        0.419   0.200   9.179   9.798
  5        0.402   0.260   9.171   9.834
  6        0.411   0.258   9.176   9.845
  7        0.397   0.285   9.153   9.834
  8        0.409   0.258   9.178   9.845
  9        0.413   0.277   9.148   9.838
 10        0.397   0.270   9.142   9.809
 11        0.419   0.283   9.158   9.859
 12        0.382   0.194   9.217   9.792
 13        1.610   3.274   0.000   4.884
tot        6.497   6.176 110.054 122.728