 vasp.5.4.1 05Feb16 (build Feb 08 2018 09:21:51) complex

 executed on             LinuxIFC date 2019.11.21  15:54:11

 INCAR:
 POTCAR:    PAW_PBE Ag 02Apr2005

 POTCAR:    PAW_PBE Ag 02Apr2005
   VRHFIN =Ag : s1 d10

   TITEL  = PAW_PBE Ag 02Apr2005
   POMASS =  107.868; ZVAL   =   11.000    mass and valenz
   ENMAX  =  249.844; ENMIN  =  187.383 eV

  PAW_PBE Ag 02Apr2005                  :

 POSCAR: Ag
  positions in cartesian coordinates
 exchange correlation table for  LEXCH =        8
   RHO(1)=    0.500       N(1)  =     2000
   RHO(2)=  100.500       N(2)  =     4000

 ion  position               nearest neighbor table
   1  0.000  0.000  0.000-   2 2.80   3 2.80   4 2.80   2 2.80   3 2.80   2 2.80   4 2.80   2 2.80
                             3 2.80   4 2.80   3 2.80   4 2.80
   2  0.000  0.500  0.500-   1 2.80   3 2.80   4 2.80   1 2.80   4 2.80   1 2.80   3 2.80   1 2.80
                             3 2.80   4 2.80   4 2.80   3 2.80
   3  0.500  0.000  0.500-   1 2.80   2 2.80   4 2.80   1 2.80   4 2.80   2 2.80   4 2.80   4 2.80
                             1 2.80   2 2.80   1 2.80   2 2.80
   4  0.500  0.500  0.000-   1 2.80   2 2.80   3 2.80   2 2.80   3 2.80   1 2.80   3 2.80   3 2.80
                             1 2.80   2 2.80   2 2.80   1 2.80

  LATTYP: Found a simple cubic cell.
 ALAT       =     3.9536666667

  Lattice vectors:

 A1 = (   3.9536666667,   0.0000000000,   0.0000000000)
 A2 = (   0.0000000000,   3.9536666667,   0.0000000000)
 A3 = (   0.0000000000,   0.0000000000,   3.9536666667)

Analysis of symmetry for initial positions (statically):
 Subroutine PRICEL returns following result:

  LATTYP: Found a face centered cubic cell.
 ALAT       =     3.9536666667

[...]

   4 primitive cells build up your supercell.

 Routine SETGRP: Setting up the symmetry group for a
 simple cubic supercell.

 Subroutine GETGRP returns: Found 48 space group operations
 (whereof 48 operations were pure point group operations)
 out of a pool of 48 trial point group operations.

The static configuration has the point symmetry O_h .

Analysis of symmetry for dynamics (positions and initial velocities):
 Subroutine PRICEL returns following result:

  LATTYP: Found a face centered cubic cell.
 ALAT       =     3.9536666667

  Lattice vectors:

 A1 = (   1.9768333333,   1.9768333333,   0.0000000000)
 A2 = (   1.9768333333,   0.0000000000,  -1.9768333333)
 A3 = (   0.0000000000,   1.9768333333,  -1.9768333333)

   4 primitive cells build up your supercell.

 Routine SETGRP: Setting up the symmetry group for a
 simple cubic supercell.

 Subroutine GETGRP returns: Found 48 space group operations
 (whereof 48 operations were pure point group operations)
 out of a pool of 48 trial point group operations.

The dynamic configuration has the point symmetry O_h .

 Subroutine INISYM returns: Found 48 space group operations
 (whereof 48 operations are pure point group operations),
 and found     4 'primitive' translations

 KPOINTS: KPOINTS created by Atomic Simulation Env

Automatic generation of k-mesh.
Space group operators:
 irot       det(A)        alpha          n_x          n_y          n_z        tau_x        tau_y        tau_z
    1     1.000000     0.000001     1.000000     0.000000     0.000000     0.000000     0.000000     0.000000
    2    -1.000000     0.000001     1.000000     0.000000     0.000000     0.000000     0.000000     0.000000
    3     1.000000   120.000000    -0.577350    -0.577350    -0.577350     0.000000     0.000000     0.000000
    4    -1.000000   120.000000    -0.577350    -0.577350    -0.577350     0.000000     0.000000     0.000000
    5     1.000000   120.000000     0.577350     0.577350     0.577350     0.000000     0.000000     0.000000
    6    -1.000000   120.000000     0.577350     0.577350     0.577350     0.000000     0.000000     0.000000
    7     1.000000    90.000000     0.000000     0.000000    -1.000000     0.000000     0.000000     0.000000
    8    -1.000000    90.000000     0.000000     0.000000    -1.000000     0.000000     0.000000     0.000000
    9     1.000000   180.000000     0.000000     0.707107     0.707107     0.000000     0.000000     0.000000
   10    -1.000000   180.000000     0.000000     0.707107     0.707107     0.000000     0.000000     0.000000
   11     1.000000    90.000000     0.000000     1.000000     0.000000     0.000000     0.000000     0.000000
   12    -1.000000    90.000000     0.000000     1.000000     0.000000     0.000000     0.000000     0.000000
   13     1.000000   180.000000     0.000000     0.000000     1.000000     0.000000     0.000000     0.000000
   14    -1.000000   180.000000     0.000000     0.000000     1.000000     0.000000     0.000000     0.000000
   15     1.000000   120.000000    -0.577350     0.577350     0.577350     0.000000     0.000000     0.000000
   16    -1.000000   120.000000    -0.577350     0.577350     0.577350     0.000000     0.000000     0.000000
   17     1.000000   120.000000    -0.577350     0.577350    -0.577350     0.000000     0.000000     0.000000
   18    -1.000000   120.000000    -0.577350     0.577350    -0.577350     0.000000     0.000000     0.000000
   19     1.000000    90.000000     0.000000     0.000000     1.000000     0.000000     0.000000     0.000000
   20    -1.000000    90.000000     0.000000     0.000000     1.000000     0.000000     0.000000     0.000000
   21     1.000000    90.000000    -1.000000     0.000000     0.000000     0.000000     0.000000     0.000000
   22    -1.000000    90.000000    -1.000000     0.000000     0.000000     0.000000     0.000000     0.000000
   23     1.000000   180.000000     0.707107     0.000000     0.707107     0.000000     0.000000     0.000000
   24    -1.000000   180.000000     0.707107     0.000000     0.707107     0.000000     0.000000     0.000000
   25     1.000000   120.000000     0.577350    -0.577350     0.577350     0.000000     0.000000     0.000000
   26    -1.000000   120.000000     0.577350    -0.577350     0.577350     0.000000     0.000000     0.000000
   27     1.000000   120.000000    -0.577350    -0.577350     0.577350     0.000000     0.000000     0.000000
   28    -1.000000   120.000000    -0.577350    -0.577350     0.577350     0.000000     0.000000     0.000000
   29     1.000000   180.000000     1.000000     0.000000     0.000000     0.000000     0.000000     0.000000
   30    -1.000000   180.000000     1.000000     0.000000     0.000000     0.000000     0.000000     0.000000
   31     1.000000    90.000000     0.000000    -1.000000     0.000000     0.000000     0.000000     0.000000
   32    -1.000000    90.000000     0.000000    -1.000000     0.000000     0.000000     0.000000     0.000000
   33     1.000000   180.000000     0.707107     0.707107     0.000000     0.000000     0.000000     0.000000
   34    -1.000000   180.000000     0.707107     0.707107     0.000000     0.000000     0.000000     0.000000
   35     1.000000    90.000000     1.000000     0.000000     0.000000     0.000000     0.000000     0.000000
   36    -1.000000    90.000000     1.000000     0.000000     0.000000     0.000000     0.000000     0.000000
   37     1.000000   120.000000     0.577350    -0.577350    -0.577350     0.000000     0.000000     0.000000
   38    -1.000000   120.000000     0.577350    -0.577350    -0.577350     0.000000     0.000000     0.000000
   39     1.000000   180.000000     0.000000     1.000000     0.000000     0.000000     0.000000     0.000000
   40    -1.000000   180.000000     0.000000     1.000000     0.000000     0.000000     0.000000     0.000000
   41     1.000000   120.000000     0.577350     0.577350    -0.577350     0.000000     0.000000     0.000000
   42    -1.000000   120.000000     0.577350     0.577350    -0.577350     0.000000     0.000000     0.000000
   43     1.000000   180.000000     0.000000    -0.707107     0.707107     0.000000     0.000000     0.000000
   44    -1.000000   180.000000     0.000000    -0.707107     0.707107     0.000000     0.000000     0.000000
   45     1.000000   180.000000     0.707107    -0.707107     0.000000     0.000000     0.000000     0.000000
   46    -1.000000   180.000000     0.707107    -0.707107     0.000000     0.000000     0.000000     0.000000
   47     1.000000   180.000000     0.707107     0.000000    -0.707107     0.000000     0.000000     0.000000
   48    -1.000000   180.000000     0.707107     0.000000    -0.707107     0.000000     0.000000     0.000000

 Subroutine IBZKPT returns following result:

 Found     35 irreducible k-points:

 Following reciprocal coordinates:
            Coordinates               Weight
  0.000000  0.000000  0.000000      1.000000
  0.111111  0.000000  0.000000      6.000000
  0.222222  0.000000  0.000000      6.000000
  0.333333  0.000000  0.000000      6.000000
  0.444444  0.000000  0.000000      6.000000
  0.111111  0.111111  0.000000     12.000000
  0.222222  0.111111  0.000000     24.000000
  0.333333  0.111111  0.000000     24.000000
  0.444444  0.111111  0.000000     24.000000
  0.222222  0.222222  0.000000     12.000000
  0.333333  0.222222  0.000000     24.000000
  0.444444  0.222222  0.000000     24.000000
  0.333333  0.333333  0.000000     12.000000
  0.444444  0.333333  0.000000     24.000000
  0.444444  0.444444  0.000000     12.000000
  0.111111  0.111111  0.111111      8.000000
  0.222222  0.111111  0.111111     24.000000
  0.333333  0.111111  0.111111     24.000000
  0.444444  0.111111  0.111111     24.000000
  0.222222  0.222222  0.111111     24.000000
  0.333333  0.222222  0.111111     48.000000
  0.444444  0.222222  0.111111     48.000000
  0.333333  0.333333  0.111111     24.000000
  0.444444  0.333333  0.111111     48.000000
  0.444444  0.444444  0.111111     24.000000
  0.222222  0.222222  0.222222      8.000000
  0.333333  0.222222  0.222222     24.000000
  0.444444  0.222222  0.222222     24.000000
  0.333333  0.333333  0.222222     24.000000
  0.444444  0.333333  0.222222     48.000000
  0.444444  0.444444  0.222222     24.000000
  0.333333  0.333333  0.333333      8.000000
  0.444444  0.333333  0.333333     24.000000
  0.444444  0.444444  0.333333     24.000000
  0.444444  0.444444  0.444444      8.000000

 Following cartesian coordinates:
            Coordinates               Weight
  0.000000  0.000000  0.000000      1.000000
  0.028103  0.000000  0.000000      6.000000
  0.056207  0.000000  0.000000      6.000000
  0.084310  0.000000  0.000000      6.000000
  0.112413  0.000000  0.000000      6.000000
  0.028103  0.028103  0.000000     12.000000
  0.056207  0.028103  0.000000     24.000000
  0.084310  0.028103  0.000000     24.000000
  0.112413  0.028103  0.000000     24.000000
  0.056207  0.056207  0.000000     12.000000
  0.084310  0.056207  0.000000     24.000000
  0.112413  0.056207  0.000000     24.000000
  0.084310  0.084310  0.000000     12.000000
  0.112413  0.084310  0.000000     24.000000
  0.112413  0.112413  0.000000     12.000000
  0.028103  0.028103  0.028103      8.000000
  0.056207  0.028103  0.028103     24.000000
  0.084310  0.028103  0.028103     24.000000
  0.112413  0.028103  0.028103     24.000000
  0.056207  0.056207  0.028103     24.000000
[...]
   0.05620662  0.05620662  0.00000000       0.016
   0.08430992  0.05620662  0.00000000       0.033
   0.11241323  0.05620662  0.00000000       0.033
   0.08430992  0.08430992  0.00000000       0.016
   0.11241323  0.08430992  0.00000000       0.033
   0.11241323  0.11241323  0.00000000       0.016
   0.02810331  0.02810331  0.02810331       0.011
   0.05620662  0.02810331  0.02810331       0.033
   0.08430992  0.02810331  0.02810331       0.033
   0.11241323  0.02810331  0.02810331       0.033
   0.05620662  0.05620662  0.02810331       0.033
   0.08430992  0.05620662  0.02810331       0.066
   0.11241323  0.05620662  0.02810331       0.066
   0.08430992  0.08430992  0.02810331       0.033
   0.11241323  0.08430992  0.02810331       0.066
   0.11241323  0.11241323  0.02810331       0.033
   0.05620662  0.05620662  0.05620662       0.011
   0.08430992  0.05620662  0.05620662       0.033
   0.11241323  0.05620662  0.05620662       0.033
   0.08430992  0.08430992  0.05620662       0.033
   0.11241323  0.08430992  0.05620662       0.066
   0.11241323  0.11241323  0.05620662       0.033
   0.08430992  0.08430992  0.08430992       0.011
   0.11241323  0.08430992  0.08430992       0.033
   0.11241323  0.11241323  0.08430992       0.033
   0.11241323  0.11241323  0.11241323       0.011

 k-points in reciprocal lattice and weights: KPOINTS created by Atomic Simulation Env
   0.00000000  0.00000000  0.00000000       0.001
   0.11111111  0.00000000  0.00000000       0.008
   0.22222222  0.00000000  0.00000000       0.008
   0.33333333  0.00000000  0.00000000       0.008
   0.44444444  0.00000000  0.00000000       0.008
   0.11111111  0.11111111  0.00000000       0.016
   0.22222222  0.11111111  0.00000000       0.033
   0.33333333  0.11111111  0.00000000       0.033
   0.44444444  0.11111111  0.00000000       0.033
   0.22222222  0.22222222  0.00000000       0.016
   0.33333333  0.22222222  0.00000000       0.033
   0.44444444  0.22222222  0.00000000       0.033
   0.33333333  0.33333333  0.00000000       0.016
   0.44444444  0.33333333  0.00000000       0.033
   0.44444444  0.44444444  0.00000000       0.016
   0.11111111  0.11111111  0.11111111       0.011
   0.22222222  0.11111111  0.11111111       0.033
   0.33333333  0.11111111  0.11111111       0.033
   0.44444444  0.11111111  0.11111111       0.033
   0.22222222  0.22222222  0.11111111       0.033
   0.33333333  0.22222222  0.11111111       0.066
   0.44444444  0.22222222  0.11111111       0.066
   0.33333333  0.33333333  0.11111111       0.033
   0.44444444  0.33333333  0.11111111       0.066
   0.44444444  0.44444444  0.11111111       0.033
   0.22222222  0.22222222  0.22222222       0.011
   0.33333333  0.22222222  0.22222222       0.033
   0.44444444  0.22222222  0.22222222       0.033
   0.33333333  0.33333333  0.22222222       0.033
   0.44444444  0.33333333  0.22222222       0.066
   0.44444444  0.44444444  0.22222222       0.033
   0.33333333  0.33333333  0.33333333       0.011
   0.44444444  0.33333333  0.33333333       0.033
   0.44444444  0.44444444  0.33333333       0.033
   0.44444444  0.44444444  0.44444444       0.011

 position of ions in fractional coordinates (direct lattice)
   0.00000000  0.00000000  0.00000000
   0.00000000  0.50000000  0.50000000
   0.50000000  0.00000000  0.50000000
   0.50000000  0.50000000  0.00000000

 position of ions in cartesian coordinates  (Angst):
   0.00000000  0.00000000  0.00000000
   0.00000000  1.97683333  1.97683333
   1.97683333  0.00000000  1.97683333
   1.97683333  1.97683333  0.00000000

 k-point  1 :   0.0000 0.0000 0.0000  plane waves:    1141
 k-point  2 :   0.1111 0.0000 0.0000  plane waves:    1129
 k-point  3 :   0.2222 0.0000 0.0000  plane waves:    1125
 k-point  4 :   0.3333 0.0000 0.0000  plane waves:    1133
 k-point  5 :   0.4444 0.0000 0.0000  plane waves:    1133
 k-point  6 :   0.1111 0.1111 0.0000  plane waves:    1127
 k-point  7 :   0.2222 0.1111 0.0000  plane waves:    1126
 k-point  8 :   0.3333 0.1111 0.0000  plane waves:    1129
 k-point  9 :   0.4444 0.1111 0.0000  plane waves:    1127
 k-point 10 :   0.2222 0.2222 0.0000  plane waves:    1129
 k-point 11 :   0.3333 0.2222 0.0000  plane waves:    1127
 k-point 12 :   0.4444 0.2222 0.0000  plane waves:    1122
 k-point 13 :   0.3333 0.3333 0.0000  plane waves:    1139
 k-point 14 :   0.4444 0.3333 0.0000  plane waves:    1120
 k-point 15 :   0.4444 0.4444 0.0000  plane waves:    1116
 k-point 16 :   0.1111 0.1111 0.1111  plane waves:    1108
 k-point 17 :   0.2222 0.1111 0.1111  plane waves:    1128
 k-point 18 :   0.3333 0.1111 0.1111  plane waves:    1130
 k-point 19 :   0.4444 0.1111 0.1111  plane waves:    1139
 k-point 20 :   0.2222 0.2222 0.1111  plane waves:    1128
 k-point 21 :   0.3333 0.2222 0.1111  plane waves:    1124
 k-point 22 :   0.4444 0.2222 0.1111  plane waves:    1123
 k-point 23 :   0.3333 0.3333 0.1111  plane waves:    1123
 k-point 24 :   0.4444 0.3333 0.1111  plane waves:    1122
 k-point 25 :   0.4444 0.4444 0.1111  plane waves:    1120
 k-point 26 :   0.2222 0.2222 0.2222  plane waves:    1120
 k-point 27 :   0.3333 0.2222 0.2222  plane waves:    1126
 k-point 28 :   0.4444 0.2222 0.2222  plane waves:    1126
 k-point 29 :   0.3333 0.3333 0.2222  plane waves:    1117
 k-point 30 :   0.4444 0.3333 0.2222  plane waves:    1114
 k-point 31 :   0.4444 0.4444 0.2222  plane waves:    1123
 k-point 32 :   0.3333 0.3333 0.3333  plane waves:    1118
 k-point 33 :   0.4444 0.3333 0.3333  plane waves:    1113
 k-point 34 :   0.4444 0.4444 0.3333  plane waves:    1105
 k-point 35 :   0.4444 0.4444 0.4444  plane waves:    1082

 maximum and minimum number of plane-waves per node :      1141     1082

 maximum number of plane-waves:      1141
 maximum index in each direction:
   IXMAX=    6   IYMAX=    6   IZMAX=    6
   IXMIN=   -6   IYMIN=   -6   IZMIN=   -6

 WARNING: aliasing errors must be expected set NGX to  26 to avoid them
 WARNING: aliasing errors must be expected set NGY to  26 to avoid them
 WARNING: aliasing errors must be expected set NGZ to  26 to avoid them
 aliasing errors are usually negligible using standard VASP settings
 and one can safely disregard these warnings

 serial   3D FFT for wavefunctions
 parallel 3D FFT for charge:
    minimum data exchange during FFTs selected (reduces bandwidth)

 Broyden mixing: mesh for mixing (old mesh)
   NGX = 13   NGY = 13   NGZ = 13
  (NGX  = 40   NGY  = 40   NGZ  = 40)
  gives a total of   2197 points

 initial charge density was supplied:
 charge density of overlapping atoms calculated
 number of electron      44.0000000 magnetization
 keeping initial charge density in first step

 Maximum index for augmentation-charges          405 (set IRDMAX)

 First call to EWALD:  gamma=   0.448
 Maximum number of real-space cells 3x 3x 3
 Maximum number of reciprocal cells 3x 3x 3

 FEWALD executed in parallel

----------------------------------------- Iteration    1(   1)  ---------------------------------------

 eigenvalue-minimisations  :  3360
 total energy-change (2. order) : 0.1975847E+03  (-0.1867184E+04)
 number of electron      44.0000000 magnetization
 augmentation part       44.0000000 magnetization

 Free energy of the ion-electron system (eV)
  alpha Z        PSCENC =       220.20846516
  Ewald energy   TEWEN  =     -4041.08204516
  -Hartree energ DENC   =      -749.69322514
  -exchange      EXHF   =         0.00000000
  -V(xc)+E(xc)   XCENC  =       -40.46598327
  PAW double counting   =      4013.84859731    -3829.39709692
  entropy T*S    EENTRO =         0.00049791
  eigenvalues    EBANDS =       475.13177381
  atomic energy  EATOM  =      4149.03371350
  Solvation  Ediel_sol  =         0.00000000
  free energy    TOTEN  =       197.58469720 eV

  energy without entropy =      197.58419929  energy(sigma->0) =      197.58453123

[...]

 eigenvalue-minimisations  :  4512
 total energy-change (2. order) :-0.2059620E+03  (-0.1944393E+03)
 number of electron      44.0000000 magnetization
 augmentation part       44.0000000 magnetization

[...]

 Broyden mixing:
  rms(total) = 0.13804E+01    rms(broyden)= 0.13804E+01
  rms(prec ) = 0.20241E+01
  weight for this iteration     100.00

[...]

 eigenvalues of (default mixing * dielectric matrix)
  average eigenvalue GAMMA=   1.7090
  1.7090

[...]

 eigenvalue-minimisations  :  4368
 total energy-change (2. order) : 0.1421866E-01  (-0.3723449E-03)
 number of electron      44.0000209 magnetization
 augmentation part       20.9088967 magnetization

 Broyden mixing:
  rms(total) = 0.25687E-01    rms(broyden)= 0.25686E-01
  rms(prec ) = 0.26019E-01
  weight for this iteration     100.00

 eigenvalues of (default mixing * dielectric matrix)
  average eigenvalue GAMMA=   1.5063
  2.5181  1.1249  0.8760

[...]

----------------------------------------- Iteration    1(   9)  ---------------------------------------

 eigenvalue-minimisations  :  3216
 total energy-change (2. order) :-0.9040945E-05  (-0.2519832E-05)
 number of electron      44.0000209 magnetization
 augmentation part       20.9088967 magnetization

 Free energy of the ion-electron system (eV)
  alpha Z        PSCENC =       220.20846516
  Ewald energy   TEWEN  =     -4041.08204516
  -Hartree energ DENC   =      -696.28457749
  -exchange      EXHF   =         0.00000000
  -V(xc)+E(xc)   XCENC  =       -42.37810223
  PAW double counting   =      4659.91510780    -4489.01771955
  entropy T*S    EENTRO =        -0.00182850
  eigenvalues    EBANDS =       229.22309970
  atomic energy  EATOM  =      4149.03371350
  Solvation  Ediel_sol  =         0.00000000
  free energy    TOTEN  =       -10.38388677 eV

  energy without entropy =      -10.38205827  energy(sigma->0) =      -10.38327727

 average (electrostatic) potential at core
  the test charge radii are     1.1249
  (the norm of the test charge is              1.0000)
       1 -69.5812       2 -69.5812       3 -69.5812       4 -69.5812

 E-fermi :   9.8423     XC(G=0): -12.8082     alpha+bet :-14.8562

 k-point     1 :       0.0000    0.0000    0.0000
  band No.  band energies     occupation
      1       1.3561      2.00000
      2       2.7367      2.00000
      3       2.7367      2.00000
      4       2.7367      2.00000
      5       2.9138      2.00000
      6       2.9138      2.00000
      7       2.9138      2.00000
      8       4.6848      2.00000
      9       4.6848      2.00000
     10       4.6848      2.00000
     11       5.9160      2.00000
     12       5.9160      2.00000
     13       6.8234      2.00000
     14       6.8234      2.00000
     15       6.8234      2.00000
     16       7.1065      2.00000
     17       7.1065      2.00000
     18       7.1065      2.00000
     19       7.1065      2.00000
     20       7.1065      2.00000
     21       7.1065      2.00000
     22      11.3929     -0.00000
     23      11.3929     -0.00000
     24      11.3929     -0.00000
     25      17.4342      0.00000
     26      17.4342      0.00000
     27      17.4342      0.00000
     28      21.0497      0.00000
     29      21.0497      0.00000
     30      21.0497      0.00000
     31      21.0497      0.00000
     32      21.0497      0.00000
     33      21.0497      0.00000
     34      26.0839      0.00000
     35      28.3004      0.00000
     36      28.3004      0.00000
     37      28.3004      0.00000
     38      28.4711      0.00000
     39      28.4711      0.00000
     40      28.4711      0.00000
     41      30.2474      0.00000
     42      30.2474      0.00000
     43      30.2474      0.00000
     44      35.3223      0.00000
     45      37.1922      0.00000
     46      37.1922      0.00000
     47      37.1922      0.00000
     48      40.4745      0.00000

[...]

 k-point    35 :       0.4444    0.4444    0.4444
  band No.  band energies     occupation
      1       2.8399      2.00000
      2       2.8818      2.00000
      3       2.8818      2.00000
      4       2.8818      2.00000
      5       4.6119      2.00000
      6       4.6119      2.00000
      7       4.6119      2.00000
      8       4.6743      2.00000
      9       4.6743      2.00000
     10       4.7100      2.00000
     11       4.7100      2.00000
     12       4.7100      2.00000
     13       6.5797      2.00000
     14       6.5797      2.00000
     15       6.5797      2.00000
     16       6.8008      2.00000
     17       6.8008      2.00000
     18       6.8629      2.00000
     19       6.8629      2.00000
     20       6.8629      2.00000
     21       8.6080      2.00000
     22       9.4681      2.00000
     23       9.4681      2.00000
     24       9.4681      2.00000
     25      14.1760      0.00000
     26      14.1760      0.00000
     27      14.1760      0.00000
     28      14.8244      0.00000
     29      25.3253      0.00000
     30      25.3253      0.00000
     31      25.3253      0.00000
     32      25.4291      0.00000
     33      28.2774      0.00000
     34      28.2774      0.00000
     35      28.2774      0.00000
     36      28.3946      0.00000
     37      28.3946      0.00000
     38      28.3946      0.00000
     39      28.9426      0.00000
     40      28.9426      0.00000
     41      34.1695      0.00000
     42      34.1695      0.00000
     43      34.4990      0.00000
     44      34.4990      0.00000
     45      34.4990      0.00000
     46      34.5797      0.00000
     47      34.5797      0.00000
     48      34.5797      0.00000

 soft charge-density along one line, spin component           1
         0         1         2         3         4         5         6         7         8         9
 total charge-density along one line

------------------------ aborting loop because EDIFF is reached ----------------------------------------

  FORCE on cell =-STRESS in cart. coord.  units (eV):
  Direction    XX          YY          ZZ          XY          YZ          ZX
  Alpha Z   220.20847   220.20847   220.20847
  Ewald   -1347.02794 -1347.02794 -1347.02794    -0.00000     0.00000    -0.00000
  Hartree   232.08621   232.08621   232.08621    -0.00000    -0.00000    -0.00000
  E(xc)    -233.85460  -233.85460  -233.85460    -0.00000    -0.00000    -0.00000
  Local     241.07435   241.07435   241.07435     0.00000    -0.00000     0.00000
  n-local    -9.33047   -24.85258   -28.54064     0.84175     4.40576     1.77151
  augment   367.77918   367.77918   367.77918     0.00000    -0.00000     0.00000
  Kinetic   555.69781   547.05477   541.16753    -4.25926    -0.30633    -1.57345
  Fock        0.00000     0.00000     0.00000     0.00000     0.00000     0.00000
  Total       7.33115     7.33115     7.33115    -0.00000    -0.00000     0.00000
  in kB     190.05632   190.05632   190.05632    -0.00000    -0.00000     0.00000

 VOLUME and BASIS-vectors are now :
  energy-cutoff  :      400.00
  volume of cell :       61.80
      direct lattice vectors                 reciprocal lattice vectors
     3.953666667  0.000000000  0.000000000     0.252929770  0.000000000  0.000000000
     0.000000000  3.953666667  0.000000000     0.000000000  0.252929770  0.000000000
     0.000000000  0.000000000  3.953666667     0.000000000  0.000000000  0.252929770

  length of vectors
     3.953666667  3.953666667  3.953666667     0.252929770  0.252929770  0.252929770

 FORCES acting on ions
    electron-ion (+dipol)            ewald-force                    non-local-force                 convergence-correction
   0.340E-13 0.537E-13 -.273E-15   -.355E-14 -.972E-14 -.758E-14   -.331E-23 -.750E-23 0.414E-24   0.150E-13 -.907E-14 0.845E-14
   0.347E-13 -.940E-13 -.149E-12   -.282E-14 0.126E-13 0.422E-14   -.414E-24 0.000E+00 0.000E+00   0.131E-13 0.316E-13 0.452E-14
   -.926E-13 0.579E-13 0.745E-12   0.286E-14 -.134E-13 0.421E-14   -.827E-24 -.331E-23 0.000E+00   -.657E-14 -.477E-14 -.439E-13
   -.941E-13 -.449E-13 -.613E-12   0.360E-14 0.889E-14 -.282E-14   -.124E-23 0.165E-23 0.000E+00   -.114E-13 0.375E-13 0.331E-13
   -.118E-12 -.273E-13 -.176E-13   0.932E-16 -.166E-14 -.198E-14   -.579E-23 -.915E-23 0.414E-24   0.101E-13 0.553E-13 0.212E-14

 POSITION                                       TOTAL-FORCE (eV/Angst)
      0.00000      0.00000      0.00000         0.000000      0.000000      0.000000
      0.00000      1.97683      1.97683        -0.000000     -0.000000     -0.000000
      1.97683      0.00000      1.97683        -0.000000      0.000000     -0.000000
      1.97683      1.97683      0.00000         0.000000      0.000000      0.000000
    total drift:                               -0.000000      0.000000     -0.000000

  FREE ENERGIE OF THE ION-ELECTRON SYSTEM (eV)
  free  energy   TOTEN  =       -10.38388677 eV

  energy  without entropy=      -10.38205827  energy(sigma->0) =      -10.38327727