 vasp.5.4.1 05Feb16 (build Feb 08 2018 09:21:51) complex

 executed on             LinuxIFC date 2019.11.21  23:36:32

 INCAR:
 POTCAR:    PAW_PBE Cu 22Jun2005
 POTCAR:    PAW_PBE O 08Apr2002

 POTCAR:    PAW_PBE Cu 22Jun2005
   VRHFIN =Cu: d10 p1

   TITEL  = PAW_PBE Cu 22Jun2005
   POMASS =   63.546; ZVAL   =   11.000    mass and valenz
   ENMAX  =  295.446; ENMIN  =  221.585 eV

 POTCAR:    PAW_PBE O 08Apr2002
   VRHFIN =O: s2p4

   TITEL  = PAW_PBE O 08Apr2002
   POMASS =   16.000; ZVAL   =    6.000    mass and valenz
   ENMAX  =  400.000; ENMIN  =  300.000 eV

  PAW_PBE Cu 22Jun2005                  :
  PAW_PBE O 08Apr2002                   :

 POSCAR: Cu  O
  positions in cartesian coordinates
 exchange correlation table for  LEXCH =        8
   RHO(1)=    0.500       N(1)  =     2000
   RHO(2)=  100.500       N(2)  =     4000

 ion  position               nearest neighbor table
   1  0.167  0.167  0.413-   3 2.57   3 2.57   4 2.57   4 2.57   2 2.57   2 2.57   8 2.57   5 2.57
                             6 2.57
   2  0.667  0.167  0.413-   4 2.57   3 2.57   4 2.57   3 2.57   1 2.57   1 2.57   7 2.57   6 2.57
                             5 2.57
   3  0.167  0.667  0.413-   1 2.57   1 2.57   2 2.57   2 2.57   4 2.57   4 2.57   6 2.57   7 2.57
                             8 2.57
   4  0.667  0.667  0.413-   2 2.57   1 2.57   2 2.57   1 2.57   3 2.57   3 2.57   5 2.57   8 2.57
                             7 2.57
   5  0.833  0.333  0.500-   7 2.57   7 2.57   8 2.57   8 2.57   6 2.57   6 2.57   4 2.57  11 2.57
                             1 2.57   9 2.57  12 2.57   2 2.57
   6  0.333  0.333  0.500-   8 2.57   7 2.57   8 2.57   7 2.57   5 2.57   5 2.57   3 2.57  12 2.57
                             2 2.57  11 2.57  10 2.57   1 2.57
   7  0.833  0.833  0.500-   5 2.57   5 2.57   6 2.57   6 2.57   8 2.57   8 2.57   2 2.57   9 2.57
                             3 2.57  10 2.57  11 2.57   4 2.57
   8  0.333  0.833  0.500-   6 2.57   5 2.57   6 2.57   5 2.57   7 2.57   7 2.57   1 2.57  10 2.57
                             4 2.57   9 2.57  12 2.57   3 2.57
   9  0.000  0.000  0.587-  13 1.91  11 2.57  11 2.57  12 2.57  12 2.57  10 2.57  10 2.57   7 2.57
                             8 2.57   5 2.57
  10  0.500  0.000  0.587-  13 1.91  12 2.57  11 2.57  12 2.57  11 2.57   9 2.57   9 2.57   8 2.57
                             6 2.57   7 2.57
  11  0.000  0.500  0.587-  13 1.91   9 2.57   9 2.57  10 2.57  10 2.57  12 2.57  12 2.57   5 2.57
                             7 2.57   6 2.57
  12  0.500  0.500  0.587-  10 2.57   9 2.57  10 2.57   9 2.57  11 2.57  11 2.57   6 2.57   5 2.57
                             8 2.57
  13  0.167  0.167  0.636-   9 1.91  10 1.91  11 1.91

  LATTYP: Found a hexagonal cell.
 ALAT       =     5.1420805128
 C/A-ratio  =     4.7059728251

  Lattice vectors:

 A1 = (   2.5710402564,  -4.4531723524,   0.0000000000)
 A2 = (  -5.1420805128,   0.0000000000,   0.0000000000)
 A3 = (   0.0000000000,   0.0000000000, -24.1984911575)

Analysis of symmetry for initial positions (statically):
 Subroutine PRICEL returns:
 Original cell was already a primitive cell.

 Routine SETGRP: Setting up the symmetry group for a
 hexagonal supercell.

 Subroutine GETGRP returns: Found  6 space group operations
 (whereof  2 operations were pure point group operations)
 out of a pool of 24 trial point group operations.

The static configuration has the point symmetry C_1h.
 The point group associated with its full space group is C_3v.

Analysis of symmetry for dynamics (positions and initial velocities):
 Subroutine PRICEL returns:
 Original cell was already a primitive cell.

 Routine SETGRP: Setting up the symmetry group for a
 hexagonal supercell.

 Subroutine GETGRP returns: Found  6 space group operations
 (whereof  2 operations were pure point group operations)
 out of a pool of 24 trial point group operations.

The dynamic configuration has the point symmetry C_1h.
 The point group associated with its full space group is C_3v.

 Subroutine INISYM returns: Found  6 space group operations
 (whereof  2 operations are pure point group operations),
 and found     1 'primitive' translations

 KPOINTS: KPOINTS created by Atomic Simulation Env

Automatic generation of k-mesh.
Space group operators:
 irot       det(A)        alpha          n_x          n_y          n_z        tau_x        tau_y        tau_z
    1     1.000000     0.000000     1.000000     0.000000     0.000000     0.000000     0.000000     0.000000
    2    -1.000000   179.999999     0.500000    -0.866025     0.000000     0.000000     0.000000     0.000000
    3     1.000000   120.000000     0.000000     0.000000     1.000000     0.000000    -0.500000     0.000000
    4     1.000000   120.000000     0.000000     0.000000    -1.000000    -0.500000    -0.000000     0.000000
    5    -1.000000   180.000000     1.000000     0.000000     0.000000    -0.500000     0.000000     0.000000
    6    -1.000000   179.999999    -0.500000    -0.866025     0.000000     0.000000    -0.500000     0.000000

 Subroutine IBZKPT returns following result:

 Found     12 irreducible k-points:

 Following reciprocal coordinates:
            Coordinates               Weight
  0.000000  0.000000  0.000000      1.000000
  0.111111 -0.000000  0.000000      6.000000
  0.222222 -0.000000  0.000000      6.000000
  0.333333 -0.000000  0.000000      6.000000
  0.444444 -0.000000  0.000000      6.000000
  0.222222  0.111111  0.000000      6.000000
  0.333333  0.111111  0.000000     12.000000
  0.444444  0.111111  0.000000     12.000000
 -0.444444  0.111111  0.000000      6.000000
  0.444444  0.222222  0.000000      6.000000
 -0.444444  0.222222  0.000000     12.000000
 -0.333333  0.333333  0.000000      2.000000

 Following cartesian coordinates:
            Coordinates               Weight
  0.000000  0.000000  0.000000      1.000000
  0.021608 -0.012476  0.000000      6.000000
  0.043216 -0.024951  0.000000      6.000000
  0.064825 -0.037427  0.000000      6.000000
  0.086433 -0.049902  0.000000      6.000000
  0.043216 -0.000000  0.000000      6.000000
  0.064825 -0.012476  0.000000     12.000000
  0.086433 -0.024951  0.000000     12.000000
 -0.086433  0.074853  0.000000      6.000000
  0.086433  0.000000  0.000000      6.000000
 -0.086433  0.099804  0.000000     12.000000
 -0.064825  0.112280  0.000000      2.000000

 I would recommend the setting:
   dimension x,y,z NGX =    25 NGY =   25 NGZ =  118
 SYSTEM =  unknown system
 POSCAR =  Cu  O

 Startparameter for this run:
   NWRITE =      2    write-flag & timer
   PREC   = normal    normal or accurate (medium, high low for compatibility)
   ISTART =      0    job   : 0-new  1-cont  2-samecut
   ICHARG =      2    charge: 1-file 2-atom 10-const
   ISPIN  =      1    spin polarized calculation?
   LNONCOLLINEAR =      F non collinear calculations
   LSORBIT =      F    spin-orbit coupling
   INIWAV =      1    electr: 0-lowe 1-rand  2-diag
   LASPH  =      F    aspherical Exc in radial PAW
   METAGGA=      F    non-selfconsistent MetaGGA calc.

 Electronic Relaxation 1
   ENCUT  =  400.0 eV  29.40 Ry    5.42 a.u.   8.39  8.39 39.46*2*pi/ulx,y,z
   ENINI  =  400.0     initial cutoff
   ENAUG  =  605.4 eV  augmentation charge cutoff
   NELM   =     60;   NELMIN=  2; NELMDL= -5     # of ELM steps
   EDIFF  = 0.1E-03   stopping-criterion for ELM
   LREAL  =      F    real-space projection
   NLSPLINE    = F    spline interpolate recip. space projectors
   LCOMPAT=      F    compatible to vasp.4.4
   GGA_COMPAT  = T    GGA compatible to vasp.4.4-vasp.4.6
   LMAXPAW     = -100 max onsite density
   LMAXMIX     =    2 max onsite mixed and CHGCAR
   VOSKOWN=      0    Vosko Wilk Nusair interpolation
   ROPT   =    0.00000   0.00000
 Ionic relaxation
   EDIFFG = 0.1E-02   stopping-criterion for IOM
   NSW    =     20    number of steps for IOM
   NBLOCK =      1;   KBLOCK =     20    inner block; outer block
   IBRION =      2    ionic relax: 0-MD 1-quasi-New 2-CG
   NFREE  =      1    steps in history (QN), initial steepest desc. (CG)
   ISIF   =      2    stress and relaxation
   IWAVPR =     11    prediction:  0-non 1-charg 2-wave 3-comb
   ISYM   =      2    0-nonsym 1-usesym 2-fastsym
   LCORR  =      T    Harris-Foulkes like correction to forces

   POTIM  = 0.5000    time-step for ionic-motion
   TEIN   =    0.0    initial temperature
   TEBEG  =    0.0;   TEEND  =   0.0 temperature during run
   SMASS  =  -3.00    Nose mass-parameter (am)
   estimated Nose-frequenzy (Omega)   =  0.10E-29 period in steps =****** mass=  -0.604E-27a.u.
   SCALEE = 1.0000    scale energy and forces
   NPACO  =    256;   APACO  = 16.0  distance and # of slots for P.C.
   PSTRESS=    0.0 pullay stress

  Mass of Ions in am
   POMASS =  63.55 16.00
  Ionic Valenz
   ZVAL   =  11.00  6.00
  Atomic Wigner-Seitz radii
  virtual crystal weights
   VCA    =   1.00  1.00
   NELECT =     138.0000    total number of electrons
   NUPDOWN=      -1.0000    fix difference up-down

 DOS related values:
   EMIN   =  10.00;   EMAX   =-10.00  energy-range for DOS
   EFERMI =   0.00
   ISMEAR =     1;   SIGMA  =   0.10  broadening in eV -4-tet -1-fermi 0-gaus

 Electronic relaxation 2 (details)
   IALGO  =     38    algorithm
   LDIAG  =      T    sub-space diagonalisation (order eigenvalues)
   LSUBROT=      F    optimize rotation matrix (better conditioning)
   TURBO    =      0    0=normal 1=particle mesh
   IRESTART =      0    0=no restart 2=restart with 2 vectors
   NREBOOT  =      0    no. of reboots
   NMIN     =      0    reboot dimension
   EREF     =   0.00    reference energy to select bands
   IMIX   =      4    mixing-type and parameters
     AMIX     =   0.40;   BMIX     =  1.00
     AMIX_MAG =   1.60;   BMIX_MAG =  1.00
     AMIN     =   0.10
     WC   =   100.;   INIMIX=   1;  MIXPRE=   1;  MAXMIX= -45

 Intra band minimization:
   WEIMIN = 0.0010     energy-eigenvalue tresh-hold
   EBREAK =  0.26E-06  absolut break condition
   DEPER  =   0.30     relativ break condition

   TIME   =   0.40     timestep for ELM

  volume/ion in A,a.u.               =      42.62       287.64
  Fermi-wavevector in a.u.,A,eV,Ry     =   1.029996  1.946411 14.434315  1.060892
  Thomas-Fermi vector in A             =   2.164072

 Write flags
   LWAVE  =      F    write WAVECAR
   LCHARG =      F    write CHGCAR
   LVTOT  =      F    write LOCPOT, total local potential
   LVHAR  =      F    write LOCPOT, Hartree potential only
   LELF   =      F    write electronic localiz. function (ELF)
   LORBIT =      0    0 simple, 1 ext, 2 COOP (PROOUT)

 Dipole corrections
   LMONO  =      F    monopole corrections only (constant potential shift)
   LDIPOL =      F    correct potential (dipole corrections)
   IDIPOL =      0    1-x, 2-y, 3-z, 4-all directions
   EPSILON=  1.0000000 bulk dielectric constant

 Exchange correlation treatment:
   GGA     =    --    GGA type
   VOSKOWN=      0    Vosko Wilk Nusair interpolation
   LHFCALC =     F    Hartree Fock is set to
   LHFONE  =     F    Hartree Fock one center treatment
   AEXX    =    0.0000 exact exchange contribution

 Linear response parameters
   LEPSILON=     F    determine dielectric tensor
[...]
  in kB     -11.22125   -11.22125    -8.53358     0.00000    -0.00000     0.00000

 VOLUME and BASIS-vectors are now :
  energy-cutoff  :      400.00
  volume of cell :      554.11
      direct lattice vectors                 reciprocal lattice vectors
     5.142080513  0.000000000  0.000000000     0.194473812 -0.112279508  0.000000000
     2.571040256  4.453172352  0.000000000     0.000000000  0.224559016  0.000000000
     0.000000000  0.000000000 24.198491158     0.000000000  0.000000000  0.041324891

[...]

 FORCES acting on ions
    electron-ion (+dipol)            ewald-force                    non-local-force                 convergence-correction
   -.149E-05 -.860E-06 0.296E+04   0.305E-11 0.175E-11 -.296E+04   0.173E-17 -.104E-16 -.225E+01   0.427E-07 0.247E-07 -.110E+00
   0.207E-05 0.147E+00 0.296E+04   0.306E-11 0.174E-11 -.296E+04   0.390E-17 -.126E+00 -.178E+01   0.771E-07 0.281E-02 -.105E+00
   0.127E+00 -.736E-01 0.296E+04   0.303E-11 0.173E-11 -.296E+04   -.109E+00 0.631E-01 -.178E+01   0.243E-02 -.140E-02 -.105E+00
   -.127E+00 -.736E-01 0.296E+04   0.304E-11 0.175E-11 -.296E+04   0.109E+00 0.631E-01 -.178E+01   -.243E-02 -.140E-02 -.105E+00
   0.733E+01 -.423E+01 0.191E+03   -.744E+01 0.429E+01 -.192E+03   0.275E-01 -.159E-01 0.231E+00   0.712E-02 -.411E-02 0.109E+00
   -.733E+01 -.423E+01 0.191E+03   0.744E+01 0.429E+01 -.192E+03   -.275E-01 -.159E-01 0.231E+00   -.712E-02 -.411E-02 0.109E+00
   -.899E-05 -.519E-05 0.184E+03   -.533E-11 -.296E-11 -.183E+03   -.104E-16 0.000E+00 -.134E+01   0.295E-07 0.170E-07 0.108E+00
   -.830E-05 0.847E+01 0.191E+03   -.384E-11 -.859E+01 -.192E+03   -.520E-17 0.317E-01 0.231E+00   0.137E-06 0.822E-02 0.109E+00
   0.131E+03 0.756E+02 -.258E+04   -.132E+03 -.763E+02 0.258E+04   0.740E+00 0.427E+00 -.642E-01   0.142E-01 0.817E-02 0.186E+00
   -.131E+03 0.756E+02 -.258E+04   0.132E+03 -.763E+02 0.258E+04   -.740E+00 0.427E+00 -.642E-01   -.142E-01 0.817E-02 0.186E+00
   0.373E-05 -.151E+03 -.258E+04   0.889E-11 0.153E+03 0.258E+04   0.000E+00 -.854E+00 -.642E-01   0.140E-06 -.163E-01 0.186E+00
   0.195E-05 0.113E-05 -.268E+04   -.200E-11 -.137E-11 0.267E+04   -.243E-16 -.347E-17 0.568E+01   0.117E-06 0.678E-07 0.184E+00
   0.112E-04 0.646E-05 -.216E+04   0.871E-11 0.486E-11 0.218E+04   -.173E-16 0.000E+00 -.267E+02   -.172E-06 -.992E-07 0.669E-01
   0.124E-04 0.714E-05 0.287E+02   0.169E-12 -.250E-14 0.000E+00   -.416E-16 -.347E-17 -.295E+02   0.369E-06 0.213E-06 0.818E+00

 POSITION                                       TOTAL-FORCE (eV/Angst)
      1.28552      0.74220     10.00000         0.000000      0.000000      0.180056
      3.85656      0.74220     10.00000         0.000000      0.023688      0.041769
      2.57104      2.96878     10.00000         0.020514     -0.011844      0.041769
      5.14208      2.96878     10.00000        -0.020514     -0.011844      0.041769
      5.14208      1.48439     12.09925        -0.071560      0.041315     -0.099228
      2.57104      1.48439     12.09925         0.071560      0.041315     -0.099228
      6.42760      3.71098     12.09925         0.000000      0.000000      0.282879
      3.85656      3.71098     12.09925         0.000000     -0.082630     -0.099228
      0.00000      0.00000     14.19849        -0.453632     -0.261905      0.189783
      2.57104      0.00000     14.19849         0.453632     -0.261905      0.189783
      1.28552      2.22659     14.19849        -0.000000      0.523810      0.189783
      3.85656      2.22659     14.19849         0.000000      0.000000     -0.452414
      1.28552      0.74220     15.39849         0.000000      0.000000     -0.407493
    total drift:                                0.000013      0.000007      0.001353

  FREE ENERGIE OF THE ION-ELECTRON SYSTEM (eV)
  free  energy   TOTEN  =       -47.48403972 eV

  energy  without entropy=      -47.47317941  energy(sigma->0) =      -47.48041962

[...]

 d Force = 0.5664864E-01[ 0.423E-01, 0.710E-01]  d Energy = 0.5733036E-01-0.682E-03
 d Force =-0.6280789E+02[-0.635E+02,-0.621E+02]  d Ewald  =-0.6280797E+02 0.823E-04

 Steepest descent step on ions:
 trial-energy change:   -0.057330  1 .order   -0.056649   -0.070979   -0.042318
  (g-gl).g = 0.710E-01      g.g   = 0.710E-01  gl.gl    = 0.000E+00
 g(Force)  = 0.710E-01   g(Stress)= 0.000E+00 ortho     = 0.000E+00
 gamma     =   0.00000
 trial     =   1.00000
 opt step  =   2.13206  (harmonic =   2.47653) maximal distance =0.05387719
 next E    =   -47.566313   (d E  =  -0.08227)

[...]

 Conjugate gradient step on ions:
 trial-energy change:   -0.020354  1 .order   -0.020219   -0.039132   -0.001307
  (g-gl).g = 0.222E-01      g.g   = 0.296E-01  gl.gl    = 0.710E-01
 g(Force)  = 0.296E-01   g(Stress)= 0.000E+00 ortho     = 0.743E-02
 gamma     =   0.31223
 trial     =   1.22641
 opt step  =   1.26878  (harmonic =   1.26878) maximal distance =0.01519600
 next E    =   -47.590007   (d E  =  -0.02024)

[...]

 d Force = 0.3678445E-05[-0.378E-04, 0.451E-04]  d Energy = 0.4800035E-04-0.443E-04
 d Force =-0.3170931E+01[-0.317E+01,-0.317E+01]  d Ewald  =-0.3170931E+01 0.261E-06

[...]

 Conjugate gradient step on ions:
 trial-energy change:   -0.006174  1 .order   -0.005991   -0.008192   -0.003790
  (g-gl).g = 0.109E-01      g.g   = 0.696E-02  gl.gl    = 0.296E-01
 g(Force)  = 0.696E-02   g(Stress)= 0.000E+00 ortho     =-0.892E-03
 gamma     =   0.36857
 trial     =   1.23489
 opt step  =   2.29840  (harmonic =   2.29840) maximal distance =0.01238362
 next E    =   -47.597791   (d E  =  -0.00762)

[...]

 Conjugate gradient step on ions:
 trial-energy change:   -0.001672  1 .order   -0.001499   -0.002008   -0.000991
  (g-gl).g = 0.963E-03      g.g   = 0.142E-02  gl.gl    = 0.696E-02
 g(Force)  = 0.142E-02   g(Stress)= 0.000E+00 ortho     =-0.275E-03
 gamma     =   0.13838
 trial     =   1.44759
 opt step  =   2.85777  (harmonic =   2.85777) maximal distance =0.01047314
 next E    =   -47.599717   (d E  =  -0.00198)

[...]

 d Force = 0.5399044E-03[ 0.115E-03, 0.965E-03]  d Energy = 0.8377027E-03-0.298E-03
 d Force =-0.4203892E+02[-0.420E+02,-0.420E+02]  d Ewald  =-0.4203892E+02-0.528E-05

[...]

 d Force = 0.7755965E-04[-0.470E-03, 0.625E-03]  d Energy = 0.2076874E-04 0.568E-04
 d Force = 0.8044359E+01[ 0.805E+01, 0.804E+01]  d Ewald  = 0.8044373E+01-0.147E-04

 Conjugate gradient step on ions:
 trial-energy change:   -0.000021  1 .order   -0.000078   -0.000625    0.000470
  (g-gl).g = 0.199E-03      g.g   = 0.350E-03  gl.gl    = 0.142E-02
 g(Force)  = 0.350E-03   g(Stress)= 0.000E+00 ortho     = 0.814E-04
 gamma     =   0.13949
 trial     =   1.72962
 opt step  =   0.98742  (harmonic =   0.98742) maximal distance =0.00344067
 next E    =   -47.600423   (d E  =  -0.00018)

 FEWALD executed in parallel

[...]

 eigenvalue-minimisations  :  2352
 total energy-change (2. order) : 0.1582704E-03  (-0.5904755E-02)
 number of electron     138.0000138 magnetization
 augmentation part       84.8630519 magnetization

[...]

 Broyden mixing:
  rms(total) = 0.22907E-02    rms(broyden)= 0.22874E-02
  rms(prec ) = 0.24477E-02
  weight for this iteration     100.00

 eigenvalues of (default mixing * dielectric matrix)
  average eigenvalue GAMMA=   0.7215
  0.7215

[...]

----------------------------------------- Iteration   11(   3)  ---------------------------------------

 eigenvalue-minimisations  :  1920
 total energy-change (2. order) :-0.2247227E-05  (-0.1255097E-04)
 number of electron     138.0000137 magnetization
 augmentation part       84.8629213 magnetization

 Free energy of the ion-electron system (eV)
  alpha Z        PSCENC =       204.46100579
  Ewald energy   TEWEN  =     70410.89037016
  -Hartree energ DENC   =    -86380.29848571
  -exchange      EXHF   =         0.00000000
  -V(xc)+E(xc)   XCENC  =       562.14558166
  PAW double counting   =     16107.67688049   -17402.32524115
  entropy T*S    EENTRO =        -0.00733037
  eigenvalues    EBANDS =      -673.89804092
  atomic energy  EATOM  =     17123.75487843
  Solvation  Ediel_sol  =         0.00000000
  free energy    TOTEN  =       -47.60038162 eV

  energy without entropy =      -47.59305125  energy(sigma->0) =      -47.59793816

 average (electrostatic) potential at core
  the test charge radii are     0.9430  0.7215
  (the norm of the test charge is              1.0000)
       1 -72.8723       2 -72.7592       3 -72.7592       4 -72.7592       5 -73.0214
       6 -73.0214       7 -73.1340       8 -73.0214       9 -73.0585      10 -73.0585
      11 -73.0585      12 -72.8024      13 -77.4683

 E-fermi :  -1.7262     XC(G=0):  -4.1589     alpha+bet : -3.5686

[...]

 k-point    12 :      -0.3333    0.3333    0.0000
  band No.  band energies     occupation
      1     -20.0677      2.00000
      2      -8.1777      2.00000
      3      -8.0541      2.00000
      4      -7.9359      2.00000
      5      -7.0482      2.00000
      6      -6.9796      2.00000
      7      -6.7126      2.00000
      8      -6.3250      2.00000
      9      -6.1121      2.00000
     10      -6.0047      2.00000
     11      -5.6563      2.00000
     12      -5.6123      2.00000
     13      -5.5780      2.00000
     14      -5.5645      2.00000
     15      -5.5312      2.00000
     16      -5.5281      2.00000
     17      -5.4074      2.00000
     18      -5.3943      2.00000
     19      -5.3629      2.00000
     20      -5.3277      2.00000
     21      -5.3097      2.00000
     22      -5.1742      2.00000
     23      -5.1414      2.00000
     24      -5.0917      2.00000
     25      -5.0809      2.00000
     26      -4.9849      2.00000
     27      -4.8841      2.00000
     28      -4.8827      2.00000
     29      -4.8586      2.00000
     30      -4.8470      2.00000
     31      -4.8253      2.00000
     32      -4.7752      2.00000
     33      -4.7678      2.00000
     34      -4.7086      2.00000
     35      -4.5115      2.00000
     36      -4.4803      2.00000
     37      -4.4476      2.00000
     38      -4.4049      2.00000
     39      -4.3775      2.00000
     40      -4.3698      2.00000
     41      -4.3260      2.00000
     42      -4.2366      2.00000
     43      -4.1625      2.00000
     44      -4.1064      2.00000
     45      -4.0376      2.00000
     46      -4.0221      2.00000
     47      -3.9652      2.00000
     48      -3.9349      2.00000
     49      -3.8993      2.00000
     50      -3.8940      2.00000
     51      -3.8487      2.00000
     52      -3.7893      2.00000
     53      -3.7480      2.00000
     54      -3.7221      2.00000
     55      -3.6874      2.00000
     56      -3.6232      2.00000
     57      -3.5673      2.00000
     58      -3.5210      2.00000
     59      -3.5053      2.00000
     60      -3.4935      2.00000
[...]
     82       5.0136      0.00000
     83       5.0604      0.00000
     84       5.0821      0.00000
     85       5.4135      0.00000
     86       5.8367      0.00000
     87       5.8584      0.00000
     88       6.0266      0.00000
     89       6.0606      0.00000
     90       6.0642      0.00000
     91       6.1553      0.00000
     92       6.6552      0.00000
     93       7.0785      0.00000
     94       7.0992      0.00000
     95       7.2183      0.00000
     96       7.2258      0.00000

 soft charge-density along one line, spin component           1
         0         1         2         3         4         5         6         7         8         9
 total charge-density along one line

------------------------ aborting loop because EDIFF is reached ----------------------------------------

  FORCE on cell =-STRESS in cart. coord.  units (eV):
  Direction    XX          YY          ZZ          XY          YZ          ZX
  Alpha Z   204.46101   204.46101   204.46101
  Ewald   79339.96354 79339.96354-88269.04930    -0.00000     0.00000     0.00000
  Hartree 83490.21683 83490.21683-80599.69711     0.00000    -0.00000    -0.00000
  E(xc)    -799.89527  -799.89510  -801.82632    -0.00015     0.00000     0.00000
  Local  ************************167391.34584     0.00597    -0.00005    -0.00008
  n-local  -276.08569  -288.35385  -287.29001    -5.60429     0.11273    -0.36307
  augment  1139.72257  1139.72865  1146.90081    -0.00527    -0.00000    -0.00001
  Kinetic  1198.86104  1202.92903  1213.75772     1.95198    -1.40860     1.31076
  Fock        0.00000     0.00000     0.00000     0.00000     0.00000     0.00000
  Total      -2.77062    -2.77062    -1.39736     0.00000     0.00000     0.00000
  in kB      -8.01107    -8.01107    -4.04037     0.00000     0.00000     0.00000

 VOLUME and BASIS-vectors are now :
  energy-cutoff  :      400.00
  volume of cell :      554.11
      direct lattice vectors                 reciprocal lattice vectors
     5.142080513  0.000000000  0.000000000     0.194473812 -0.112279508  0.000000000
     2.571040256  4.453172352  0.000000000     0.000000000  0.224559016  0.000000000
     0.000000000  0.000000000 24.198491158     0.000000000  0.000000000  0.041324891

  length of vectors
     5.142080513  5.142080513 24.198491158     0.224559016  0.224559016  0.041324891

 FORCES acting on ions
    electron-ion (+dipol)            ewald-force                    non-local-force                 convergence-correction
   0.214E-05 0.124E-05 0.296E+04   0.399E-10 0.231E-10 -.296E+04   -.243E-16 -.347E-17 -.283E+01   0.337E-06 0.195E-06 0.194E-01
   0.117E-07 0.473E+01 0.297E+04   -.317E-10 -.457E+01 -.297E+04   -.347E-17 -.161E+00 -.181E+01   0.521E-07 -.250E-02 -.245E-01
   0.410E+01 -.237E+01 0.297E+04   -.396E+01 0.228E+01 -.297E+04   -.140E+00 0.807E-01 -.181E+01   -.216E-02 0.125E-02 -.245E-01
   -.410E+01 -.237E+01 0.297E+04   0.396E+01 0.228E+01 -.297E+04   0.140E+00 0.807E-01 -.181E+01   0.216E-02 0.125E-02 -.245E-01
   -.940E+01 0.543E+01 0.203E+03   0.918E+01 -.530E+01 -.203E+03   0.199E+00 -.115E+00 0.436E+00   0.161E-01 -.929E-02 0.620E-01
   0.940E+01 0.543E+01 0.203E+03   -.918E+01 -.530E+01 -.203E+03   -.199E+00 -.115E+00 0.436E+00   -.161E-01 -.928E-02 0.620E-01
   0.215E-04 0.124E-04 0.148E+03   -.204E-10 0.268E-11 -.146E+03   -.520E-17 0.000E+00 -.147E+01   -.169E-06 -.977E-07 0.390E-01
   -.117E-04 -.109E+02 0.203E+03   0.156E-10 0.106E+02 -.203E+03   -.347E-17 0.229E+00 0.436E+00   -.250E-06 0.186E-01 0.620E-01
   0.765E+02 0.441E+02 -.264E+04   -.777E+02 -.448E+02 0.264E+04   0.122E+01 0.704E+00 -.193E+00   0.183E-01 0.106E-01 0.964E-01
   -.765E+02 0.441E+02 -.264E+04   0.777E+02 -.448E+02 0.264E+04   -.122E+01 0.704E+00 -.193E+00   -.183E-01 0.106E-01 0.964E-01
   -.371E-05 -.883E+02 -.264E+04   0.138E-10 0.897E+02 0.264E+04   -.278E-16 -.141E+01 -.193E+00   0.213E-05 -.212E-01 0.964E-01
   -.260E-04 -.150E-04 -.256E+04   -.188E-10 -.109E-10 0.256E+04   0.104E-16 0.000E+00 0.560E+01   -.391E-06 -.226E-06 0.813E-01
   0.762E-05 0.440E-05 -.213E+04   0.392E-11 0.221E-11 0.216E+04   0.607E-17 -.347E-17 -.258E+02   -.295E-07 -.171E-07 0.513E-01
   -.582E-04 -.336E-04 0.286E+02   0.139E-12 -.244E-13 0.455E-11   0.211E-15 -.347E-17 -.292E+02   0.995E-06 0.574E-06 0.593E+00

 POSITION                                       TOTAL-FORCE (eV/Angst)
      1.28552      0.74220     10.03915        -0.000000     -0.000000     -0.034648
      3.85656      0.73963     10.02042        -0.000000     -0.001768      0.010331
      2.56882      2.97006     10.02042        -0.001531      0.000884      0.010331
      5.14430      2.97006     10.02042         0.001531      0.000884      0.010331
      5.14565      1.48233     12.08361        -0.000108      0.000062     -0.009864
      2.56747      1.48233     12.08361         0.000108      0.000062     -0.009864
      6.42760      3.71098     12.14707        -0.000000     -0.000000      0.019114
      3.85656      3.71510     12.08361        -0.000000     -0.000124     -0.009864
     -0.04910     -0.02835     14.23416         0.023180      0.013383      0.008656
      2.62014     -0.02835     14.23416        -0.023180      0.013383      0.008656
      1.28552      2.28328     14.23416         0.000000     -0.026766      0.008656
      3.85656      2.22659     14.06726        -0.000000      0.000000     -0.005365
      1.28552      0.74220     15.32139        -0.000000      0.000000     -0.006468
    total drift:                               -0.000057     -0.000033     -0.031246

  FREE ENERGIE OF THE ION-ELECTRON SYSTEM (eV)
  free  energy   TOTEN  =       -47.60038162 eV

  energy  without entropy=      -47.59305125  energy(sigma->0) =      -47.59793816

 d Force = 0.9050050E-04[-0.205E-04, 0.201E-03]  d Energy = 0.1164009E-03-0.259E-04
 d Force =-0.3452408E+01[-0.345E+01,-0.345E+01]  d Ewald  =-0.3452409E+01 0.115E-05

 reached required accuracy - stopping structural energy minimisation