 vasp.5.4.1 05Feb16 (build Feb 08 2018 09:21:51) complex

 executed on             LinuxIFC date 2019.11.21  15:55:57

 INCAR:
 POTCAR:    PAW_PBE Au 04Oct2007

 POTCAR:    PAW_PBE Au 04Oct2007
   VRHFIN =Au: s1d10

   TITEL  = PAW_PBE Au 04Oct2007
   POMASS =  196.966; ZVAL   =   11.000    mass and valenz
   ENMAX  =  229.943; ENMIN  =  172.457 eV

  PAW_PBE Au 04Oct2007                  :

 POSCAR: Au
  positions in cartesian coordinates
 exchange correlation table for  LEXCH =        8
   RHO(1)=    0.500       N(1)  =     2000
   RHO(2)=  100.500       N(2)  =     4000

 ion  position               nearest neighbor table
   1  0.000  0.000  0.000-   2 3.08   3 3.08   4 3.08   2 3.08   3 3.08   2 3.08   4 3.08   2 3.08
                             3 3.08   4 3.08   3 3.08   4 3.08
   2  0.000  0.500  0.500-   1 3.08   3 3.08   4 3.08   1 3.08   4 3.08   1 3.08   3 3.08   1 3.08
                             3 3.08   4 3.08   4 3.08   3 3.08
   3  0.500  0.000  0.500-   1 3.08   2 3.08   4 3.08   1 3.08   4 3.08   2 3.08   4 3.08   4 3.08
                             1 3.08   2 3.08   1 3.08   2 3.08
   4  0.500  0.500  0.000-   1 3.08   2 3.08   3 3.08   2 3.08   3 3.08   1 3.08   3 3.08   3 3.08
                             1 3.08   2 3.08   2 3.08   1 3.08

  LATTYP: Found a simple cubic cell.
 ALAT       =     4.3520000000

  Lattice vectors:

 A1 = (   4.3520000000,   0.0000000000,   0.0000000000)
 A2 = (   0.0000000000,   4.3520000000,   0.0000000000)
 A3 = (   0.0000000000,   0.0000000000,   4.3520000000)

Analysis of symmetry for initial positions (statically):
 Subroutine PRICEL returns following result:

  LATTYP: Found a face centered cubic cell.
 ALAT       =     4.3520000000

[...]

   4 primitive cells build up your supercell.

 Routine SETGRP: Setting up the symmetry group for a
 simple cubic supercell.

 Subroutine GETGRP returns: Found 48 space group operations
 (whereof 48 operations were pure point group operations)
 out of a pool of 48 trial point group operations.

The static configuration has the point symmetry O_h .

Analysis of symmetry for dynamics (positions and initial velocities):
 Subroutine PRICEL returns following result:

  LATTYP: Found a face centered cubic cell.
 ALAT       =     4.3520000000

  Lattice vectors:

 A1 = (   2.1760000000,   2.1760000000,   0.0000000000)
 A2 = (   2.1760000000,   0.0000000000,  -2.1760000000)
 A3 = (   0.0000000000,   2.1760000000,  -2.1760000000)

   4 primitive cells build up your supercell.

 Routine SETGRP: Setting up the symmetry group for a
 simple cubic supercell.

 Subroutine GETGRP returns: Found 48 space group operations
 (whereof 48 operations were pure point group operations)
 out of a pool of 48 trial point group operations.

The dynamic configuration has the point symmetry O_h .

 Subroutine INISYM returns: Found 48 space group operations
 (whereof 48 operations are pure point group operations),
 and found     4 'primitive' translations

 KPOINTS: KPOINTS created by Atomic Simulation Env

Automatic generation of k-mesh.
Space group operators:
 irot       det(A)        alpha          n_x          n_y          n_z        tau_x        tau_y        tau_z
    1     1.000000     0.000000     1.000000     0.000000     0.000000     0.000000     0.000000     0.000000
    2    -1.000000     0.000000     1.000000     0.000000     0.000000     0.000000     0.000000     0.000000
    3     1.000000   120.000000    -0.577350    -0.577350    -0.577350     0.000000     0.000000     0.000000
    4    -1.000000   120.000000    -0.577350    -0.577350    -0.577350     0.000000     0.000000     0.000000
    5     1.000000   120.000000     0.577350     0.577350     0.577350     0.000000     0.000000     0.000000
    6    -1.000000   120.000000     0.577350     0.577350     0.577350     0.000000     0.000000     0.000000
    7     1.000000    90.000000     0.000000     0.000000    -1.000000     0.000000     0.000000     0.000000
    8    -1.000000    90.000000     0.000000     0.000000    -1.000000     0.000000     0.000000     0.000000
    9     1.000000   180.000000     0.000000     0.707107     0.707107     0.000000     0.000000     0.000000
   10    -1.000000   180.000000     0.000000     0.707107     0.707107     0.000000     0.000000     0.000000
   11     1.000000    90.000000     0.000000     1.000000     0.000000     0.000000     0.000000     0.000000
   12    -1.000000    90.000000     0.000000     1.000000     0.000000     0.000000     0.000000     0.000000
   13     1.000000   180.000000     0.000000     0.000000     1.000000     0.000000     0.000000     0.000000
   14    -1.000000   180.000000     0.000000     0.000000     1.000000     0.000000     0.000000     0.000000
   15     1.000000   120.000000    -0.577350     0.577350     0.577350     0.000000     0.000000     0.000000
   16    -1.000000   120.000000    -0.577350     0.577350     0.577350     0.000000     0.000000     0.000000
   17     1.000000   120.000000    -0.577350     0.577350    -0.577350     0.000000     0.000000     0.000000
   18    -1.000000   120.000000    -0.577350     0.577350    -0.577350     0.000000     0.000000     0.000000
   19     1.000000    90.000000     0.000000     0.000000     1.000000     0.000000     0.000000     0.000000
   20    -1.000000    90.000000     0.000000     0.000000     1.000000     0.000000     0.000000     0.000000
   21     1.000000    90.000000    -1.000000     0.000000     0.000000     0.000000     0.000000     0.000000
   22    -1.000000    90.000000    -1.000000     0.000000     0.000000     0.000000     0.000000     0.000000
   23     1.000000   180.000000     0.707107     0.000000     0.707107     0.000000     0.000000     0.000000
   24    -1.000000   180.000000     0.707107     0.000000     0.707107     0.000000     0.000000     0.000000
   25     1.000000   120.000000     0.577350    -0.577350     0.577350     0.000000     0.000000     0.000000
   26    -1.000000   120.000000     0.577350    -0.577350     0.577350     0.000000     0.000000     0.000000
   27     1.000000   120.000000    -0.577350    -0.577350     0.577350     0.000000     0.000000     0.000000
   28    -1.000000   120.000000    -0.577350    -0.577350     0.577350     0.000000     0.000000     0.000000
   29     1.000000   180.000000     1.000000     0.000000     0.000000     0.000000     0.000000     0.000000
   30    -1.000000   180.000000     1.000000     0.000000     0.000000     0.000000     0.000000     0.000000
   31     1.000000    90.000000     0.000000    -1.000000     0.000000     0.000000     0.000000     0.000000
   32    -1.000000    90.000000     0.000000    -1.000000     0.000000     0.000000     0.000000     0.000000
   33     1.000000   180.000000     0.707107     0.707107     0.000000     0.000000     0.000000     0.000000
   34    -1.000000   180.000000     0.707107     0.707107     0.000000     0.000000     0.000000     0.000000
   35     1.000000    90.000000     1.000000     0.000000     0.000000     0.000000     0.000000     0.000000
   36    -1.000000    90.000000     1.000000     0.000000     0.000000     0.000000     0.000000     0.000000
   37     1.000000   120.000000     0.577350    -0.577350    -0.577350     0.000000     0.000000     0.000000
   38    -1.000000   120.000000     0.577350    -0.577350    -0.577350     0.000000     0.000000     0.000000
   39     1.000000   180.000000     0.000000     1.000000     0.000000     0.000000     0.000000     0.000000
   40    -1.000000   180.000000     0.000000     1.000000     0.000000     0.000000     0.000000     0.000000
   41     1.000000   120.000000     0.577350     0.577350    -0.577350     0.000000     0.000000     0.000000
   42    -1.000000   120.000000     0.577350     0.577350    -0.577350     0.000000     0.000000     0.000000
   43     1.000000   180.000000     0.000000    -0.707107     0.707107     0.000000     0.000000     0.000000
   44    -1.000000   180.000000     0.000000    -0.707107     0.707107     0.000000     0.000000     0.000000
   45     1.000000   180.000000     0.707107    -0.707107     0.000000     0.000000     0.000000     0.000000
   46    -1.000000   180.000000     0.707107    -0.707107     0.000000     0.000000     0.000000     0.000000
   47     1.000000   180.000000     0.707107     0.000000    -0.707107     0.000000     0.000000     0.000000
   48    -1.000000   180.000000     0.707107     0.000000    -0.707107     0.000000     0.000000     0.000000

 Subroutine IBZKPT returns following result:

 Found     35 irreducible k-points:

 Following reciprocal coordinates:
            Coordinates               Weight
  0.000000  0.000000  0.000000      1.000000
  0.111111  0.000000  0.000000      6.000000
  0.222222  0.000000  0.000000      6.000000
  0.333333  0.000000  0.000000      6.000000
  0.444444  0.000000  0.000000      6.000000
  0.111111  0.111111  0.000000     12.000000
  0.222222  0.111111  0.000000     24.000000
  0.333333  0.111111  0.000000     24.000000
  0.444444  0.111111  0.000000     24.000000
  0.222222  0.222222  0.000000     12.000000
  0.333333  0.222222  0.000000     24.000000
  0.444444  0.222222  0.000000     24.000000
  0.333333  0.333333  0.000000     12.000000
  0.444444  0.333333  0.000000     24.000000
  0.444444  0.444444  0.000000     12.000000
  0.111111  0.111111  0.111111      8.000000
  0.222222  0.111111  0.111111     24.000000
  0.333333  0.111111  0.111111     24.000000
  0.444444  0.111111  0.111111     24.000000
  0.222222  0.222222  0.111111     24.000000
  0.333333  0.222222  0.111111     48.000000
  0.444444  0.222222  0.111111     48.000000
  0.333333  0.333333  0.111111     24.000000
  0.444444  0.333333  0.111111     48.000000
  0.444444  0.444444  0.111111     24.000000
  0.222222  0.222222  0.222222      8.000000
  0.333333  0.222222  0.222222     24.000000
  0.444444  0.222222  0.222222     24.000000
  0.333333  0.333333  0.222222     24.000000
  0.444444  0.333333  0.222222     48.000000
  0.444444  0.444444  0.222222     24.000000
  0.333333  0.333333  0.333333      8.000000
  0.444444  0.333333  0.333333     24.000000
  0.444444  0.444444  0.333333     24.000000
  0.444444  0.444444  0.444444      8.000000

 Following cartesian coordinates:
            Coordinates               Weight
  0.000000  0.000000  0.000000      1.000000
  0.025531  0.000000  0.000000      6.000000
  0.051062  0.000000  0.000000      6.000000
  0.076593  0.000000  0.000000      6.000000
  0.102124  0.000000  0.000000      6.000000
  0.025531  0.025531  0.000000     12.000000
  0.051062  0.025531  0.000000     24.000000
  0.076593  0.025531  0.000000     24.000000
  0.102124  0.025531  0.000000     24.000000
  0.051062  0.051062  0.000000     12.000000
  0.076593  0.051062  0.000000     24.000000
  0.102124  0.051062  0.000000     24.000000
  0.076593  0.076593  0.000000     12.000000
  0.102124  0.076593  0.000000     24.000000
  0.102124  0.102124  0.000000     12.000000
  0.025531  0.025531  0.025531      8.000000
  0.051062  0.025531  0.025531     24.000000
  0.076593  0.025531  0.025531     24.000000
  0.102124  0.025531  0.025531     24.000000
  0.051062  0.051062  0.025531     24.000000
[...]
   0.05106209  0.05106209  0.00000000       0.016
   0.07659314  0.05106209  0.00000000       0.033
   0.10212418  0.05106209  0.00000000       0.033
   0.07659314  0.07659314  0.00000000       0.016
   0.10212418  0.07659314  0.00000000       0.033
   0.10212418  0.10212418  0.00000000       0.016
   0.02553105  0.02553105  0.02553105       0.011
   0.05106209  0.02553105  0.02553105       0.033
   0.07659314  0.02553105  0.02553105       0.033
   0.10212418  0.02553105  0.02553105       0.033
   0.05106209  0.05106209  0.02553105       0.033
   0.07659314  0.05106209  0.02553105       0.066
   0.10212418  0.05106209  0.02553105       0.066
   0.07659314  0.07659314  0.02553105       0.033
   0.10212418  0.07659314  0.02553105       0.066
   0.10212418  0.10212418  0.02553105       0.033
   0.05106209  0.05106209  0.05106209       0.011
   0.07659314  0.05106209  0.05106209       0.033
   0.10212418  0.05106209  0.05106209       0.033
   0.07659314  0.07659314  0.05106209       0.033
   0.10212418  0.07659314  0.05106209       0.066
   0.10212418  0.10212418  0.05106209       0.033
   0.07659314  0.07659314  0.07659314       0.011
   0.10212418  0.07659314  0.07659314       0.033
   0.10212418  0.10212418  0.07659314       0.033
   0.10212418  0.10212418  0.10212418       0.011

 k-points in reciprocal lattice and weights: KPOINTS created by Atomic Simulation Env
   0.00000000  0.00000000  0.00000000       0.001
   0.11111111  0.00000000  0.00000000       0.008
   0.22222222  0.00000000  0.00000000       0.008
   0.33333333  0.00000000  0.00000000       0.008
   0.44444444  0.00000000  0.00000000       0.008
   0.11111111  0.11111111  0.00000000       0.016
   0.22222222  0.11111111  0.00000000       0.033
   0.33333333  0.11111111  0.00000000       0.033
   0.44444444  0.11111111  0.00000000       0.033
   0.22222222  0.22222222  0.00000000       0.016
   0.33333333  0.22222222  0.00000000       0.033
   0.44444444  0.22222222  0.00000000       0.033
   0.33333333  0.33333333  0.00000000       0.016
   0.44444444  0.33333333  0.00000000       0.033
   0.44444444  0.44444444  0.00000000       0.016
   0.11111111  0.11111111  0.11111111       0.011
   0.22222222  0.11111111  0.11111111       0.033
   0.33333333  0.11111111  0.11111111       0.033
   0.44444444  0.11111111  0.11111111       0.033
   0.22222222  0.22222222  0.11111111       0.033
   0.33333333  0.22222222  0.11111111       0.066
   0.44444444  0.22222222  0.11111111       0.066
   0.33333333  0.33333333  0.11111111       0.033
   0.44444444  0.33333333  0.11111111       0.066
   0.44444444  0.44444444  0.11111111       0.033
   0.22222222  0.22222222  0.22222222       0.011
   0.33333333  0.22222222  0.22222222       0.033
   0.44444444  0.22222222  0.22222222       0.033
   0.33333333  0.33333333  0.22222222       0.033
   0.44444444  0.33333333  0.22222222       0.066
   0.44444444  0.44444444  0.22222222       0.033
   0.33333333  0.33333333  0.33333333       0.011
   0.44444444  0.33333333  0.33333333       0.033
   0.44444444  0.44444444  0.33333333       0.033
   0.44444444  0.44444444  0.44444444       0.011

 position of ions in fractional coordinates (direct lattice)
   0.00000000  0.00000000  0.00000000
   0.00000000  0.50000000  0.50000000
   0.50000000  0.00000000  0.50000000
   0.50000000  0.50000000  0.00000000

 position of ions in cartesian coordinates  (Angst):
   0.00000000  0.00000000  0.00000000
   0.00000000  2.17600000  2.17600000
   2.17600000  0.00000000  2.17600000
   2.17600000  2.17600000  0.00000000

 k-point  1 :   0.0000 0.0000 0.0000  plane waves:    1503
 k-point  2 :   0.1111 0.0000 0.0000  plane waves:    1482
 k-point  3 :   0.2222 0.0000 0.0000  plane waves:    1474
 k-point  4 :   0.3333 0.0000 0.0000  plane waves:    1482
 k-point  5 :   0.4444 0.0000 0.0000  plane waves:    1498
 k-point  6 :   0.1111 0.1111 0.0000  plane waves:    1484
 k-point  7 :   0.2222 0.1111 0.0000  plane waves:    1479
 k-point  8 :   0.3333 0.1111 0.0000  plane waves:    1497
 k-point  9 :   0.4444 0.1111 0.0000  plane waves:    1489
 k-point 10 :   0.2222 0.2222 0.0000  plane waves:    1492
 k-point 11 :   0.3333 0.2222 0.0000  plane waves:    1498
 k-point 12 :   0.4444 0.2222 0.0000  plane waves:    1507
 k-point 13 :   0.3333 0.3333 0.0000  plane waves:    1506
 k-point 14 :   0.4444 0.3333 0.0000  plane waves:    1504
 k-point 15 :   0.4444 0.4444 0.0000  plane waves:    1496
 k-point 16 :   0.1111 0.1111 0.1111  plane waves:    1472
 k-point 17 :   0.2222 0.1111 0.1111  plane waves:    1489
 k-point 18 :   0.3333 0.1111 0.1111  plane waves:    1503
 k-point 19 :   0.4444 0.1111 0.1111  plane waves:    1497
 k-point 20 :   0.2222 0.2222 0.1111  plane waves:    1499
 k-point 21 :   0.3333 0.2222 0.1111  plane waves:    1495
 k-point 22 :   0.4444 0.2222 0.1111  plane waves:    1496
 k-point 23 :   0.3333 0.3333 0.1111  plane waves:    1503
 k-point 24 :   0.4444 0.3333 0.1111  plane waves:    1503
 k-point 25 :   0.4444 0.4444 0.1111  plane waves:    1511
 k-point 26 :   0.2222 0.2222 0.2222  plane waves:    1490
 k-point 27 :   0.3333 0.2222 0.2222  plane waves:    1493
 k-point 28 :   0.4444 0.2222 0.2222  plane waves:    1506
 k-point 29 :   0.3333 0.3333 0.2222  plane waves:    1493
 k-point 30 :   0.4444 0.3333 0.2222  plane waves:    1501
 k-point 31 :   0.4444 0.4444 0.2222  plane waves:    1494
 k-point 32 :   0.3333 0.3333 0.3333  plane waves:    1502
 k-point 33 :   0.4444 0.3333 0.3333  plane waves:    1502
 k-point 34 :   0.4444 0.4444 0.3333  plane waves:    1492
 k-point 35 :   0.4444 0.4444 0.4444  plane waves:    1502

 maximum and minimum number of plane-waves per node :      1511     1472

 maximum number of plane-waves:      1511
 maximum index in each direction:
   IXMAX=    7   IYMAX=    7   IZMAX=    7
   IXMIN=   -7   IYMIN=   -7   IZMIN=   -7

 WARNING: aliasing errors must be expected set NGX to  30 to avoid them
 WARNING: aliasing errors must be expected set NGY to  30 to avoid them
 WARNING: aliasing errors must be expected set NGZ to  30 to avoid them
 aliasing errors are usually negligible using standard VASP settings
 and one can safely disregard these warnings

 serial   3D FFT for wavefunctions
 parallel 3D FFT for charge:
    minimum data exchange during FFTs selected (reduces bandwidth)

 Broyden mixing: mesh for mixing (old mesh)
   NGX = 15   NGY = 15   NGZ = 15
  (NGX  = 48   NGY  = 48   NGZ  = 48)
  gives a total of   3375 points

 initial charge density was supplied:
 charge density of overlapping atoms calculated
 number of electron      44.0000000 magnetization
 keeping initial charge density in first step

 Maximum index for augmentation-charges          561 (set IRDMAX)

 First call to EWALD:  gamma=   0.407
 Maximum number of real-space cells 3x 3x 3
 Maximum number of reciprocal cells 3x 3x 3

 FEWALD executed in parallel

----------------------------------------- Iteration    1(   1)  ---------------------------------------

 eigenvalue-minimisations  :  3456
 total energy-change (2. order) : 0.1748793E+03  (-0.1842711E+04)
 number of electron      44.0000000 magnetization
 augmentation part       44.0000000 magnetization

 Free energy of the ion-electron system (eV)
  alpha Z        PSCENC =       226.10137935
  Ewald energy   TEWEN  =     -3671.20665883
  -Hartree energ DENC   =      -597.10020238
  -exchange      EXHF   =         0.00000000
  -V(xc)+E(xc)   XCENC  =        60.23246439
  PAW double counting   =      3496.39001341    -3404.04053930
  entropy T*S    EENTRO =        -0.00153207
  eigenvalues    EBANDS =       360.18233834
  atomic energy  EATOM  =      3704.32207507
  Solvation  Ediel_sol  =         0.00000000
  free energy    TOTEN  =       174.87933798 eV

  energy without entropy =      174.88087005  energy(sigma->0) =      174.87984867

[...]

 eigenvalue-minimisations  :  4296
 total energy-change (2. order) :-0.1858727E+03  (-0.1734809E+03)
 number of electron      44.0000000 magnetization
 augmentation part       44.0000000 magnetization

[...]

 eigenvalue-minimisations  :  4272
 total energy-change (2. order) :-0.1133067E-03  (-0.1133071E-03)
 number of electron      44.0000050 magnetization
 augmentation part       15.5686773 magnetization

 Broyden mixing:
  rms(total) = 0.10530E+01    rms(broyden)= 0.10530E+01
  rms(prec ) = 0.16485E+01
  weight for this iteration     100.00

[...]

 eigenvalues of (default mixing * dielectric matrix)
  average eigenvalue GAMMA=   1.3948
  1.3948

[...]

 Broyden mixing:
  rms(total) = 0.31290E-01    rms(broyden)= 0.31290E-01
  rms(prec ) = 0.31800E-01
  weight for this iteration     100.00

 eigenvalues of (default mixing * dielectric matrix)
  average eigenvalue GAMMA=   1.5470
  2.5241  0.9463  1.1705

[...]

----------------------------------------- Iteration    1(   9)  ---------------------------------------

 eigenvalue-minimisations  :  3504
 total energy-change (2. order) : 0.1650111E-04  (-0.5662426E-05)
 number of electron      44.0000051 magnetization
 augmentation part       16.2239235 magnetization

 Free energy of the ion-electron system (eV)
  alpha Z        PSCENC =       226.10137935
  Ewald energy   TEWEN  =     -3671.20665883
  -Hartree energ DENC   =      -554.79112018
  -exchange      EXHF   =         0.00000000
  -V(xc)+E(xc)   XCENC  =        58.29799739
  PAW double counting   =      3847.20206544    -3761.96480409
  entropy T*S    EENTRO =         0.00014214
  eigenvalues    EBANDS =       139.64406113
  atomic energy  EATOM  =      3704.32207507
  Solvation  Ediel_sol  =         0.00000000
  free energy    TOTEN  =       -12.39486258 eV

  energy without entropy =      -12.39500473  energy(sigma->0) =      -12.39490996

 average (electrostatic) potential at core
  the test charge radii are     1.2098
  (the norm of the test charge is              1.0000)
       1 -66.3693       2 -66.3693       3 -66.3693       4 -66.3693

 E-fermi :   6.5279     XC(G=0): -11.6017     alpha+bet :-11.5230

 k-point     1 :       0.0000    0.0000    0.0000
  band No.  band energies     occupation
      1      -1.3933      2.00000
      2       1.1186      2.00000
      3       1.1186      2.00000
      4       1.1186      2.00000
      5       1.3402      2.00000
      6       1.3402      2.00000
      7       1.3402      2.00000
      8       2.8281      2.00000
      9       2.8281      2.00000
     10       2.8281      2.00000
     11       3.9080      2.00000
     12       3.9080      2.00000
     13       4.7291      2.00000
     14       4.7291      2.00000
     15       4.7291      2.00000
     16       4.9913      2.00000
     17       4.9913      2.00000
     18       4.9913      2.00000
     19       4.9913      2.00000
     20       4.9913      2.00000
     21       4.9913      2.00000
     22       8.1518     -0.00000
     23       8.1518     -0.00000
     24       8.1518     -0.00000
     25      11.0158      0.00000
     26      11.0158      0.00000
     27      11.0158      0.00000
     28      16.0671      0.00000
     29      16.0671      0.00000
     30      16.0671      0.00000
     31      16.0671      0.00000
     32      16.0671      0.00000
     33      16.0671      0.00000
     34      21.2364      0.00000
     35      21.8824      0.00000
     36      21.8824      0.00000
     37      21.8824      0.00000
     38      24.0440      0.00000
     39      24.0440      0.00000
     40      24.0440      0.00000
     41      24.1318      0.00000
     42      24.1318      0.00000
     43      24.1318      0.00000
     44      28.5009      0.00000
     45      31.4139      0.00000
     46      31.4139      0.00000
     47      31.4139      0.00000
     48      32.3651      0.00000

[...]

 k-point    35 :       0.4444    0.4444    0.4444
  band No.  band energies     occupation
      1       0.8535      2.00000
      2       0.9207      2.00000
      3       0.9207      2.00000
      4       0.9207      2.00000
      5       2.7769      2.00000
      6       2.7769      2.00000
      7       2.7769      2.00000
      8       2.8283      2.00000
      9       2.8283      2.00000
     10       2.8596      2.00000
     11       2.8596      2.00000
     12       2.8596      2.00000
     13       4.4975      2.00000
     14       4.4975      2.00000
     15       4.4975      2.00000
     16       4.7116      2.00000
     17       4.7116      2.00000
     18       4.7682      2.00000
     19       4.7682      2.00000
     20       4.7682      2.00000
     21       5.7121      2.00000
     22       6.6891     -0.04502
     23       6.6891     -0.04502
     24       6.6891     -0.04502
     25       8.9402     -0.00000
     26       8.9402     -0.00000
     27       8.9402     -0.00000
     28       9.7577      0.00000
     29      20.6744      0.00000
     30      20.6744      0.00000
     31      20.6744      0.00000
     32      20.7382      0.00000
     33      21.8672      0.00000
     34      21.8672      0.00000
     35      21.8672      0.00000
     36      22.0255      0.00000
     37      22.0255      0.00000
     38      22.0255      0.00000
     39      22.4264      0.00000
     40      22.4264      0.00000
     41      28.7786      0.00000
     42      28.7786      0.00000
     43      28.9874      0.00000
     44      28.9874      0.00000
     45      28.9874      0.00000
     46      29.0578      0.00000
     47      29.0578      0.00000
     48      29.0579      0.00000

 soft charge-density along one line, spin component           1
         0         1         2         3         4         5         6         7         8         9
 total charge-density along one line

------------------------ aborting loop because EDIFF is reached ----------------------------------------

  FORCE on cell =-STRESS in cart. coord.  units (eV):
  Direction    XX          YY          ZZ          XY          YZ          ZX
  Alpha Z   226.10138   226.10138   226.10138
  Ewald   -1223.73609 -1223.73609 -1223.73609    -0.00000    -0.00000     0.00000
  Hartree   184.89987   184.89987   184.89987    -0.00000    -0.00000    -0.00000
  E(xc)    -196.79723  -196.79723  -196.79723    -0.00000     0.00000     0.00000
  Local     134.23259   134.23259   134.23259    -0.00000     0.00000    -0.00000
  n-local     1.08809   -20.82222   -25.25175     0.89167     7.14297     3.04870
  augment   272.27897   272.27897   272.27897     0.00000    -0.00000    -0.00000
  Kinetic   615.40117   611.60875   607.39316    -4.48150    -1.25748    -2.16488
  Fock        0.00000     0.00000     0.00000     0.00000     0.00000     0.00000
  Total      -6.54811    -6.54811    -6.54811     0.00000    -0.00000    -0.00000
  in kB    -127.27985  -127.27985  -127.27985     0.00000    -0.00000    -0.00000

 VOLUME and BASIS-vectors are now :
  energy-cutoff  :      400.00
  volume of cell :       82.43
      direct lattice vectors                 reciprocal lattice vectors
     4.352000000  0.000000000  0.000000000     0.229779412  0.000000000  0.000000000
     0.000000000  4.352000000  0.000000000     0.000000000  0.229779412  0.000000000
     0.000000000  0.000000000  4.352000000     0.000000000  0.000000000  0.229779412

  length of vectors
     4.352000000  4.352000000  4.352000000     0.229779412  0.229779412  0.229779412

 FORCES acting on ions
    electron-ion (+dipol)            ewald-force                    non-local-force                 convergence-correction
   -.221E-13 -.195E-13 -.328E-13   -.276E-14 0.511E-14 -.102E-13   -.662E-23 0.831E-23 0.496E-23   0.292E-13 -.386E-13 -.775E-13
   -.220E-13 0.243E-12 0.235E-12   -.348E-14 -.183E-15 0.346E-14   0.993E-23 -.414E-22 0.287E-22   0.298E-13 0.480E-13 0.977E-14
   0.235E-12 -.191E-13 -.297E-11   0.187E-14 0.755E-15 0.354E-14   -.199E-22 0.165E-22 0.662E-23   0.815E-15 -.419E-13 0.146E-12
   0.237E-12 -.171E-11 -.242E-11   0.114E-14 -.454E-14 0.169E-14   -.199E-22 -.662E-23 0.993E-23   0.146E-14 0.107E-12 -.626E-14
   0.428E-12 -.150E-11 -.519E-11   -.322E-14 0.114E-14 -.153E-14   -.364E-22 -.231E-22 0.503E-22   0.613E-13 0.740E-13 0.716E-13

 POSITION                                       TOTAL-FORCE (eV/Angst)
      0.00000      0.00000      0.00000         0.000000      0.000000      0.000000
      0.00000      2.17600      2.17600         0.000000     -0.000000      0.000000
      2.17600      0.00000      2.17600        -0.000000      0.000000     -0.000000
      2.17600      2.17600      0.00000         0.000000     -0.000000     -0.000000
    total drift:                                0.000000     -0.000000     -0.000000

  FREE ENERGIE OF THE ION-ELECTRON SYSTEM (eV)
  free  energy   TOTEN  =       -12.39486258 eV

  energy  without entropy=      -12.39500473  energy(sigma->0) =      -12.39490996