 vasp.5.4.1 05Feb16 (build Feb 08 2018 09:21:51) complex

 executed on             LinuxIFC date 2019.11.21  15:54:07

 INCAR:
 POTCAR:    PAW_PBE Cu 22Jun2005

 POTCAR:    PAW_PBE Cu 22Jun2005
   VRHFIN =Cu: d10 p1

   TITEL  = PAW_PBE Cu 22Jun2005
   POMASS =   63.546; ZVAL   =   11.000    mass and valenz
   ENMAX  =  295.446; ENMIN  =  221.585 eV

  PAW_PBE Cu 22Jun2005                  :

 POSCAR: Cu
  positions in cartesian coordinates
 exchange correlation table for  LEXCH =        8
   RHO(1)=    0.500       N(1)  =     2000
   RHO(2)=  100.500       N(2)  =     4000

 ion  position               nearest neighbor table
   1  0.000  0.000  0.000-
   2  0.000  0.500  0.500-
   3  0.500  0.000  0.500-
   4  0.500  0.500  0.000-

  LATTYP: Found a simple cubic cell.
 ALAT       =     3.9710000000

  Lattice vectors:

 A1 = (   3.9710000000,   0.0000000000,   0.0000000000)
 A2 = (   0.0000000000,   3.9710000000,   0.0000000000)
 A3 = (   0.0000000000,   0.0000000000,   3.9710000000)

Analysis of symmetry for initial positions (statically):
 Subroutine PRICEL returns following result:

  LATTYP: Found a face centered cubic cell.
 ALAT       =     3.9710000000

[...]

   4 primitive cells build up your supercell.

 Routine SETGRP: Setting up the symmetry group for a
 simple cubic supercell.

 Subroutine GETGRP returns: Found 48 space group operations
 (whereof 48 operations were pure point group operations)
 out of a pool of 48 trial point group operations.

The static configuration has the point symmetry O_h .

Analysis of symmetry for dynamics (positions and initial velocities):
 Subroutine PRICEL returns following result:

  LATTYP: Found a face centered cubic cell.
 ALAT       =     3.9710000000

  Lattice vectors:

 A1 = (   1.9855000000,   1.9855000000,   0.0000000000)
 A2 = (   1.9855000000,   0.0000000000,  -1.9855000000)
 A3 = (   0.0000000000,   1.9855000000,  -1.9855000000)

   4 primitive cells build up your supercell.

 Routine SETGRP: Setting up the symmetry group for a
 simple cubic supercell.

 Subroutine GETGRP returns: Found 48 space group operations
 (whereof 48 operations were pure point group operations)
 out of a pool of 48 trial point group operations.

The dynamic configuration has the point symmetry O_h .

 Subroutine INISYM returns: Found 48 space group operations
 (whereof 48 operations are pure point group operations),
 and found     4 'primitive' translations

 KPOINTS: KPOINTS created by Atomic Simulation Env

Automatic generation of k-mesh.
Space group operators:
 irot       det(A)        alpha          n_x          n_y          n_z        tau_x        tau_y        tau_z
    1     1.000000     0.000000     1.000000     0.000000     0.000000     0.000000     0.000000     0.000000
    2    -1.000000     0.000000     1.000000     0.000000     0.000000     0.000000     0.000000     0.000000
    3     1.000000   120.000000    -0.577350    -0.577350    -0.577350     0.000000     0.000000     0.000000
    4    -1.000000   120.000000    -0.577350    -0.577350    -0.577350     0.000000     0.000000     0.000000
    5     1.000000   120.000000     0.577350     0.577350     0.577350     0.000000     0.000000     0.000000
    6    -1.000000   120.000000     0.577350     0.577350     0.577350     0.000000     0.000000     0.000000
    7     1.000000    90.000000     0.000000     0.000000    -1.000000     0.000000     0.000000     0.000000
    8    -1.000000    90.000000     0.000000     0.000000    -1.000000     0.000000     0.000000     0.000000
    9     1.000000   180.000000     0.000000     0.707107     0.707107     0.000000     0.000000     0.000000
   10    -1.000000   180.000000     0.000000     0.707107     0.707107     0.000000     0.000000     0.000000
   11     1.000000    90.000000     0.000000     1.000000     0.000000     0.000000     0.000000     0.000000
   12    -1.000000    90.000000     0.000000     1.000000     0.000000     0.000000     0.000000     0.000000
   13     1.000000   180.000000     0.000000     0.000000     1.000000     0.000000     0.000000     0.000000
   14    -1.000000   180.000000     0.000000     0.000000     1.000000     0.000000     0.000000     0.000000
   15     1.000000   120.000000    -0.577350     0.577350     0.577350     0.000000     0.000000     0.000000
   16    -1.000000   120.000000    -0.577350     0.577350     0.577350     0.000000     0.000000     0.000000
   17     1.000000   120.000000    -0.577350     0.577350    -0.577350     0.000000     0.000000     0.000000
   18    -1.000000   120.000000    -0.577350     0.577350    -0.577350     0.000000     0.000000     0.000000
   19     1.000000    90.000000     0.000000     0.000000     1.000000     0.000000     0.000000     0.000000
   20    -1.000000    90.000000     0.000000     0.000000     1.000000     0.000000     0.000000     0.000000
   21     1.000000    90.000000    -1.000000     0.000000     0.000000     0.000000     0.000000     0.000000
   22    -1.000000    90.000000    -1.000000     0.000000     0.000000     0.000000     0.000000     0.000000
   23     1.000000   180.000000     0.707107     0.000000     0.707107     0.000000     0.000000     0.000000
   24    -1.000000   180.000000     0.707107     0.000000     0.707107     0.000000     0.000000     0.000000
   25     1.000000   120.000000     0.577350    -0.577350     0.577350     0.000000     0.000000     0.000000
   26    -1.000000   120.000000     0.577350    -0.577350     0.577350     0.000000     0.000000     0.000000
   27     1.000000   120.000000    -0.577350    -0.577350     0.577350     0.000000     0.000000     0.000000
   28    -1.000000   120.000000    -0.577350    -0.577350     0.577350     0.000000     0.000000     0.000000
   29     1.000000   180.000000     1.000000     0.000000     0.000000     0.000000     0.000000     0.000000
   30    -1.000000   180.000000     1.000000     0.000000     0.000000     0.000000     0.000000     0.000000
   31     1.000000    90.000000     0.000000    -1.000000     0.000000     0.000000     0.000000     0.000000
   32    -1.000000    90.000000     0.000000    -1.000000     0.000000     0.000000     0.000000     0.000000
   33     1.000000   180.000000     0.707107     0.707107     0.000000     0.000000     0.000000     0.000000
   34    -1.000000   180.000000     0.707107     0.707107     0.000000     0.000000     0.000000     0.000000
   35     1.000000    90.000000     1.000000     0.000000     0.000000     0.000000     0.000000     0.000000
   36    -1.000000    90.000000     1.000000     0.000000     0.000000     0.000000     0.000000     0.000000
   37     1.000000   120.000000     0.577350    -0.577350    -0.577350     0.000000     0.000000     0.000000
   38    -1.000000   120.000000     0.577350    -0.577350    -0.577350     0.000000     0.000000     0.000000
   39     1.000000   180.000000     0.000000     1.000000     0.000000     0.000000     0.000000     0.000000
   40    -1.000000   180.000000     0.000000     1.000000     0.000000     0.000000     0.000000     0.000000
   41     1.000000   120.000000     0.577350     0.577350    -0.577350     0.000000     0.000000     0.000000
   42    -1.000000   120.000000     0.577350     0.577350    -0.577350     0.000000     0.000000     0.000000
   43     1.000000   180.000000     0.000000    -0.707107     0.707107     0.000000     0.000000     0.000000
   44    -1.000000   180.000000     0.000000    -0.707107     0.707107     0.000000     0.000000     0.000000
   45     1.000000   180.000000     0.707107    -0.707107     0.000000     0.000000     0.000000     0.000000
   46    -1.000000   180.000000     0.707107    -0.707107     0.000000     0.000000     0.000000     0.000000
   47     1.000000   180.000000     0.707107     0.000000    -0.707107     0.000000     0.000000     0.000000
   48    -1.000000   180.000000     0.707107     0.000000    -0.707107     0.000000     0.000000     0.000000

 Subroutine IBZKPT returns following result:

 Found     35 irreducible k-points:

 Following reciprocal coordinates:
            Coordinates               Weight
  0.000000  0.000000  0.000000      1.000000
  0.111111  0.000000  0.000000      6.000000
  0.222222  0.000000  0.000000      6.000000
  0.333333  0.000000  0.000000      6.000000
  0.444444  0.000000  0.000000      6.000000
  0.111111  0.111111  0.000000     12.000000
  0.222222  0.111111  0.000000     24.000000
  0.333333  0.111111  0.000000     24.000000
  0.444444  0.111111  0.000000     24.000000
  0.222222  0.222222  0.000000     12.000000
  0.333333  0.222222  0.000000     24.000000
  0.444444  0.222222  0.000000     24.000000
  0.333333  0.333333  0.000000     12.000000
  0.444444  0.333333  0.000000     24.000000
  0.444444  0.444444  0.000000     12.000000
  0.111111  0.111111  0.111111      8.000000
  0.222222  0.111111  0.111111     24.000000
  0.333333  0.111111  0.111111     24.000000
  0.444444  0.111111  0.111111     24.000000
  0.222222  0.222222  0.111111     24.000000
  0.333333  0.222222  0.111111     48.000000
  0.444444  0.222222  0.111111     48.000000
  0.333333  0.333333  0.111111     24.000000
  0.444444  0.333333  0.111111     48.000000
  0.444444  0.444444  0.111111     24.000000
  0.222222  0.222222  0.222222      8.000000
  0.333333  0.222222  0.222222     24.000000
  0.444444  0.222222  0.222222     24.000000
  0.333333  0.333333  0.222222     24.000000
  0.444444  0.333333  0.222222     48.000000
  0.444444  0.444444  0.222222     24.000000
  0.333333  0.333333  0.333333      8.000000
  0.444444  0.333333  0.333333     24.000000
  0.444444  0.444444  0.333333     24.000000
  0.444444  0.444444  0.444444      8.000000

 Following cartesian coordinates:
            Coordinates               Weight
  0.000000  0.000000  0.000000      1.000000
  0.027981  0.000000  0.000000      6.000000
  0.055961  0.000000  0.000000      6.000000
  0.083942  0.000000  0.000000      6.000000
  0.111923  0.000000  0.000000      6.000000
  0.027981  0.027981  0.000000     12.000000
  0.055961  0.027981  0.000000     24.000000
  0.083942  0.027981  0.000000     24.000000
  0.111923  0.027981  0.000000     24.000000
  0.055961  0.055961  0.000000     12.000000
  0.083942  0.055961  0.000000     24.000000
  0.111923  0.055961  0.000000     24.000000
  0.083942  0.083942  0.000000     12.000000
  0.111923  0.083942  0.000000     24.000000
  0.111923  0.111923  0.000000     12.000000
  0.027981  0.027981  0.027981      8.000000
  0.055961  0.027981  0.027981     24.000000
  0.083942  0.027981  0.027981     24.000000
  0.111923  0.027981  0.027981     24.000000
  0.055961  0.055961  0.027981     24.000000
  0.083942  0.055961  0.027981     48.000000
  0.111923  0.055961  0.027981     48.000000
  0.083942  0.083942  0.027981     24.000000
  0.111923  0.083942  0.027981     48.000000
  0.111923  0.111923  0.027981     24.000000
  0.055961  0.055961  0.055961      8.000000
  0.083942  0.055961  0.055961     24.000000
  0.111923  0.055961  0.055961     24.000000
  0.083942  0.083942  0.055961     24.000000
  0.111923  0.083942  0.055961     48.000000
  0.111923  0.111923  0.055961     24.000000
  0.083942  0.083942  0.083942      8.000000
[...]
   0.05596127  0.05596127  0.00000000       0.016
   0.08394191  0.05596127  0.00000000       0.033
   0.11192255  0.05596127  0.00000000       0.033
   0.08394191  0.08394191  0.00000000       0.016
   0.11192255  0.08394191  0.00000000       0.033
   0.11192255  0.11192255  0.00000000       0.016
   0.02798064  0.02798064  0.02798064       0.011
   0.05596127  0.02798064  0.02798064       0.033
   0.08394191  0.02798064  0.02798064       0.033
   0.11192255  0.02798064  0.02798064       0.033
   0.05596127  0.05596127  0.02798064       0.033
   0.08394191  0.05596127  0.02798064       0.066
   0.11192255  0.05596127  0.02798064       0.066
   0.08394191  0.08394191  0.02798064       0.033
   0.11192255  0.08394191  0.02798064       0.066
   0.11192255  0.11192255  0.02798064       0.033
   0.05596127  0.05596127  0.05596127       0.011
   0.08394191  0.05596127  0.05596127       0.033
   0.11192255  0.05596127  0.05596127       0.033
   0.08394191  0.08394191  0.05596127       0.033
   0.11192255  0.08394191  0.05596127       0.066
   0.11192255  0.11192255  0.05596127       0.033
   0.08394191  0.08394191  0.08394191       0.011
   0.11192255  0.08394191  0.08394191       0.033
   0.11192255  0.11192255  0.08394191       0.033
   0.11192255  0.11192255  0.11192255       0.011

 k-points in reciprocal lattice and weights: KPOINTS created by Atomic Simulation Env
   0.00000000  0.00000000  0.00000000       0.001
   0.11111111  0.00000000  0.00000000       0.008
   0.22222222  0.00000000  0.00000000       0.008
   0.33333333  0.00000000  0.00000000       0.008
   0.44444444  0.00000000  0.00000000       0.008
   0.11111111  0.11111111  0.00000000       0.016
   0.22222222  0.11111111  0.00000000       0.033
   0.33333333  0.11111111  0.00000000       0.033
   0.44444444  0.11111111  0.00000000       0.033
   0.22222222  0.22222222  0.00000000       0.016
   0.33333333  0.22222222  0.00000000       0.033
   0.44444444  0.22222222  0.00000000       0.033
   0.33333333  0.33333333  0.00000000       0.016
   0.44444444  0.33333333  0.00000000       0.033
   0.44444444  0.44444444  0.00000000       0.016
   0.11111111  0.11111111  0.11111111       0.011
   0.22222222  0.11111111  0.11111111       0.033
   0.33333333  0.11111111  0.11111111       0.033
   0.44444444  0.11111111  0.11111111       0.033
   0.22222222  0.22222222  0.11111111       0.033
   0.33333333  0.22222222  0.11111111       0.066
   0.44444444  0.22222222  0.11111111       0.066
   0.33333333  0.33333333  0.11111111       0.033
   0.44444444  0.33333333  0.11111111       0.066
   0.44444444  0.44444444  0.11111111       0.033
   0.22222222  0.22222222  0.22222222       0.011
   0.33333333  0.22222222  0.22222222       0.033
   0.44444444  0.22222222  0.22222222       0.033
   0.33333333  0.33333333  0.22222222       0.033
   0.44444444  0.33333333  0.22222222       0.066
   0.44444444  0.44444444  0.22222222       0.033
   0.33333333  0.33333333  0.33333333       0.011
   0.44444444  0.33333333  0.33333333       0.033
   0.44444444  0.44444444  0.33333333       0.033
   0.44444444  0.44444444  0.44444444       0.011

 position of ions in fractional coordinates (direct lattice)
   0.00000000  0.00000000  0.00000000
   0.00000000  0.50000000  0.50000000
   0.50000000  0.00000000  0.50000000
   0.50000000  0.50000000  0.00000000

 position of ions in cartesian coordinates  (Angst):
   0.00000000  0.00000000  0.00000000
   0.00000000  1.98550000  1.98550000
   1.98550000  0.00000000  1.98550000
   1.98550000  1.98550000  0.00000000

 k-point  1 :   0.0000 0.0000 0.0000  plane waves:    1141
 k-point  2 :   0.1111 0.0000 0.0000  plane waves:    1157
 k-point  3 :   0.2222 0.0000 0.0000  plane waves:    1141
 k-point  4 :   0.3333 0.0000 0.0000  plane waves:    1149
 k-point  5 :   0.4444 0.0000 0.0000  plane waves:    1141
 k-point  6 :   0.1111 0.1111 0.0000  plane waves:    1147
 k-point  7 :   0.2222 0.1111 0.0000  plane waves:    1136
 k-point  8 :   0.3333 0.1111 0.0000  plane waves:    1145
 k-point  9 :   0.4444 0.1111 0.0000  plane waves:    1137
 k-point 10 :   0.2222 0.2222 0.0000  plane waves:    1139
 k-point 11 :   0.3333 0.2222 0.0000  plane waves:    1141
 k-point 12 :   0.4444 0.2222 0.0000  plane waves:    1139
 k-point 13 :   0.3333 0.3333 0.0000  plane waves:    1155
 k-point 14 :   0.4444 0.3333 0.0000  plane waves:    1129
 k-point 15 :   0.4444 0.4444 0.0000  plane waves:    1128
 k-point 16 :   0.1111 0.1111 0.1111  plane waves:    1141
 k-point 17 :   0.2222 0.1111 0.1111  plane waves:    1142
 k-point 18 :   0.3333 0.1111 0.1111  plane waves:    1153
 k-point 19 :   0.4444 0.1111 0.1111  plane waves:    1145
 k-point 20 :   0.2222 0.2222 0.1111  plane waves:    1146
 k-point 21 :   0.3333 0.2222 0.1111  plane waves:    1140
 k-point 22 :   0.4444 0.2222 0.1111  plane waves:    1135
 k-point 23 :   0.3333 0.3333 0.1111  plane waves:    1141
 k-point 24 :   0.4444 0.3333 0.1111  plane waves:    1129
 k-point 25 :   0.4444 0.4444 0.1111  plane waves:    1140
 k-point 26 :   0.2222 0.2222 0.2222  plane waves:    1141
 k-point 27 :   0.3333 0.2222 0.2222  plane waves:    1136
 k-point 28 :   0.4444 0.2222 0.2222  plane waves:    1142
 k-point 29 :   0.3333 0.3333 0.2222  plane waves:    1133
 k-point 30 :   0.4444 0.3333 0.2222  plane waves:    1139
 k-point 31 :   0.4444 0.4444 0.2222  plane waves:    1131
 k-point 32 :   0.3333 0.3333 0.3333  plane waves:    1118
 k-point 33 :   0.4444 0.3333 0.3333  plane waves:    1125
 k-point 34 :   0.4444 0.4444 0.3333  plane waves:    1118
 k-point 35 :   0.4444 0.4444 0.4444  plane waves:    1112

 maximum and minimum number of plane-waves per node :      1157     1112

 maximum number of plane-waves:      1157
 maximum index in each direction:
   IXMAX=    6   IYMAX=    6   IZMAX=    6
   IXMIN=   -6   IYMIN=   -6   IZMIN=   -6

 WARNING: aliasing errors must be expected set NGX to  26 to avoid them
 WARNING: aliasing errors must be expected set NGY to  26 to avoid them
 WARNING: aliasing errors must be expected set NGZ to  26 to avoid them
 aliasing errors are usually negligible using standard VASP settings
 and one can safely disregard these warnings

 serial   3D FFT for wavefunctions
 parallel 3D FFT for charge:
    minimum data exchange during FFTs selected (reduces bandwidth)

 Broyden mixing: mesh for mixing (old mesh)
   NGX = 13   NGY = 13   NGZ = 13
  (NGX  = 40   NGY  = 40   NGZ  = 40)
  gives a total of   2197 points

 initial charge density was supplied:
 charge density of overlapping atoms calculated
 number of electron      44.0000000 magnetization
 keeping initial charge density in first step

 Maximum index for augmentation-charges          293 (set IRDMAX)

 First call to EWALD:  gamma=   0.446
 Maximum number of real-space cells 3x 3x 3
 Maximum number of reciprocal cells 3x 3x 3

 FEWALD executed in parallel

----------------------------------------- Iteration    1(   1)  ---------------------------------------

 eigenvalue-minimisations  :  3480
 total energy-change (2. order) : 0.1856769E+03  (-0.1661358E+04)
 number of electron      44.0000000 magnetization
 augmentation part       44.0000000 magnetization

 Free energy of the ion-electron system (eV)
  alpha Z        PSCENC =       186.86697048
  Ewald energy   TEWEN  =     -4023.44280514
  -Hartree energ DENC   =     -1671.18286957
  -exchange      EXHF   =         0.00000000
  -V(xc)+E(xc)   XCENC  =       180.43011662
  PAW double counting   =      4912.82663951    -5336.19386850
  entropy T*S    EENTRO =         0.00008504
  eigenvalues    EBANDS =       372.54203163
  atomic energy  EATOM  =      5563.83056080
  Solvation  Ediel_sol  =         0.00000000
  free energy    TOTEN  =       185.67686087 eV

  energy without entropy =      185.67677583  energy(sigma->0) =      185.67683252

[...]

 eigenvalue-minimisations  :  3456
 total energy-change (2. order) :-0.1955327E+03  (-0.1758840E+03)
 number of electron      44.0000000 magnetization
 augmentation part       44.0000000 magnetization

[...]

 Broyden mixing:
  rms(total) = 0.13857E+01    rms(broyden)= 0.13856E+01
  rms(prec ) = 0.31466E+01
  weight for this iteration     100.00

[...]

 eigenvalues of (default mixing * dielectric matrix)
  average eigenvalue GAMMA=   0.5808
  0.5808

[...]

 eigenvalue-minimisations  :  5064
 total energy-change (2. order) : 0.4597398E-03  (-0.2185406E-03)
 number of electron      44.0000261 magnetization
 augmentation part       28.2743768 magnetization

 Broyden mixing:
  rms(total) = 0.12811E-02    rms(broyden)= 0.12802E-02
  rms(prec ) = 0.19179E-02
  weight for this iteration     100.00

 eigenvalues of (default mixing * dielectric matrix)
  average eigenvalue GAMMA=   1.4982
  2.5686  2.5686  0.6324  0.8608  0.8608

[...]

----------------------------------------- Iteration    1(  11)  ---------------------------------------

 eigenvalue-minimisations  :  2256
 total energy-change (2. order) :-0.1053746E-04  (-0.1815924E-05)
 number of electron      44.0000261 magnetization
 augmentation part       28.2743768 magnetization

 Free energy of the ion-electron system (eV)
  alpha Z        PSCENC =       186.86697048
  Ewald energy   TEWEN  =     -4023.44280514
  -Hartree energ DENC   =     -1590.42172153
  -exchange      EXHF   =         0.00000000
  -V(xc)+E(xc)   XCENC  =       176.81601005
  PAW double counting   =      4987.05554565    -5413.61607726
  entropy T*S    EENTRO =        -0.00130697
  eigenvalues    EBANDS =        99.10439717
  atomic energy  EATOM  =      5563.83056080
  Solvation  Ediel_sol  =         0.00000000
  free energy    TOTEN  =       -13.80842675 eV

  energy without entropy =      -13.80711978  energy(sigma->0) =      -13.80799109

 average (electrostatic) potential at core
  the test charge radii are     0.9430
  (the norm of the test charge is              1.0000)
       1 -66.1537       2 -66.1537       3 -66.1537       4 -66.1537

 E-fermi :   4.4897     XC(G=0): -11.1726     alpha+bet :-10.1276

 k-point     1 :       0.0000    0.0000    0.0000
  band No.  band energies     occupation
      1      -2.8460      2.00000
      2       1.0748      2.00000
      3       1.0748      2.00000
      4       1.0748      2.00000
      5       1.3743      2.00000
      6       1.3743      2.00000
      7       1.3743      2.00000
      8       2.2669      2.00000
      9       2.2669      2.00000
     10       2.2669      2.00000
     11       2.7992      2.00000
     12       2.7992      2.00000
     13       3.1560      2.00000
     14       3.1560      2.00000
     15       3.1560      2.00000
     16       3.2572      2.00000
     17       3.2572      2.00000
     18       3.2572      2.00000
     19       3.2572      2.00000
     20       3.2572      2.00000
     21       3.2572      2.00000
     22       6.2718     -0.00000
     23       6.2718     -0.00000
     24       6.2718     -0.00000
     25       9.9052      0.00000
     26       9.9052      0.00000
     27       9.9052      0.00000
     28      15.6389      0.00000
     29      15.6389      0.00000
     30      15.6389      0.00000
     31      15.6389      0.00000
     32      15.6389      0.00000
     33      15.6389      0.00000
     34      19.5355      0.00000
     35      19.5355      0.00000
     36      19.5355      0.00000
     37      20.7452      0.00000
     38      20.7452      0.00000
     39      20.7452      0.00000
     40      24.8865      0.00000
     41      25.5044      0.00000
     42      25.5044      0.00000
     43      25.5044      0.00000
     44      28.0439      0.00000
     45      28.0439      0.00000
     46      28.0439      0.00000
     47      31.4972      0.00000
     48      34.7586      0.00000

[...]

 k-point    35 :       0.4444    0.4444    0.4444
  band No.  band energies     occupation
      1       0.7766      2.00000
      2       0.8785      2.00000
      3       0.8785      2.00000
      4       0.8785      2.00000
      5       2.2310      2.00000
      6       2.2310      2.00000
      7       2.2310      2.00000
      8       2.2621      2.00000
      9       2.2621      2.00000
     10       2.2777      2.00000
     11       2.2777      2.00000
     12       2.2777      2.00000
     13       2.9910      2.00000
     14       2.9910      2.00000
     15       2.9910      2.00000
     16       3.1445      2.00000
     17       3.1445      2.00000
     18       3.1684      2.00000
     19       3.1684      2.00000
     20       3.1684      2.00000
     21       3.7370      2.00000
     22       4.4793      1.17500
     23       4.4793      1.17500
     24       4.4793      1.17500
     25       7.2492      0.00000
     26       7.2492      0.00000
     27       7.2492      0.00000
     28       7.9310      0.00000
     29      21.6411      0.00000
     30      21.6411      0.00000
     31      21.6411      0.00000
     32      21.9903      0.00000
     33      21.9903      0.00000
     34      21.9903      0.00000
     35      22.6447      0.00000
     36      22.6447      0.00000
     37      23.0159      0.00000
     38      23.0159      0.00000
     39      23.0159      0.00000
     40      23.5789      0.00000
     41      26.0878      0.00000
     42      26.0878      0.00000
     43      26.6835      0.00000
     44      26.6835      0.00000
     45      26.6835      0.00000
     46      27.1218      0.00000
     47      27.1218      0.00000
     48      27.1218      0.00000

 soft charge-density along one line, spin component           1
         0         1         2         3         4         5         6         7         8         9
 total charge-density along one line

------------------------ aborting loop because EDIFF is reached ----------------------------------------

  FORCE on cell =-STRESS in cart. coord.  units (eV):
  Direction    XX          YY          ZZ          XY          YZ          ZX
  Alpha Z   186.86697   186.86697   186.86697
  Ewald   -1341.14819 -1341.14819 -1341.14819    -0.00000    -0.00000    -0.00000
  Hartree   530.24184   530.24184   530.24184    -0.00000    -0.00000    -0.00000
  E(xc)    -255.76047  -255.76047  -255.76047    -0.00000     0.00000     0.00000
  Local     240.13210   240.13210   240.13210     0.00000     0.00000     0.00000
  n-local   -93.98045  -101.42909  -102.52551     0.30623     2.56239     1.17298
  augment   377.92926   377.92926   377.92926     0.00000     0.00000     0.00000
  Kinetic   360.53691   352.97013   347.97006    -3.01956     0.38115    -0.75806
  Fock        0.00000     0.00000     0.00000     0.00000     0.00000     0.00000
  Total      -7.22446    -7.22446    -7.22446    -0.00000    -0.00000     0.00000
  in kB    -184.84867  -184.84867  -184.84867    -0.00000    -0.00000     0.00000

 VOLUME and BASIS-vectors are now :
  energy-cutoff  :      400.00
  volume of cell :       62.62
      direct lattice vectors                 reciprocal lattice vectors
     3.971000000  0.000000000  0.000000000     0.251825737  0.000000000  0.000000000
     0.000000000  3.971000000  0.000000000     0.000000000  0.251825737  0.000000000
     0.000000000  0.000000000  3.971000000     0.000000000  0.000000000  0.251825737

  length of vectors
     3.971000000  3.971000000  3.971000000     0.251825737  0.251825737  0.251825737

 FORCES acting on ions
    electron-ion (+dipol)            ewald-force                    non-local-force                 convergence-correction
   0.583E-13 0.856E-13 -.245E-13   -.109E-13 -.539E-14 -.138E-14   0.347E-22 0.157E-22 -.232E-22   -.177E-13 -.102E-13 -.402E-13
   0.574E-13 -.232E-12 -.335E-12   -.112E-13 0.770E-15 0.412E-14   -.662E-23 0.662E-23 0.000E+00   -.177E-13 0.623E-13 0.105E-12
   -.245E-12 0.761E-13 0.163E-11   0.113E-13 0.243E-15 0.397E-14   -.265E-22 -.662E-23 0.165E-22   -.542E-13 -.222E-13 0.772E-13
   -.243E-12 0.142E-12 -.101E-11   0.110E-13 0.640E-14 -.919E-14   -.379E-22 -.513E-22 0.662E-23   -.541E-13 0.502E-13 -.781E-13
   -.372E-12 0.716E-13 0.263E-12   0.126E-15 0.203E-14 -.249E-14   -.362E-22 -.356E-22 0.000E+00   -.144E-12 0.802E-13 0.639E-13

 POSITION                                       TOTAL-FORCE (eV/Angst)
      0.00000      0.00000      0.00000        -0.000000     -0.000000     -0.000000
      0.00000      1.98550      1.98550        -0.000000     -0.000000      0.000000
      1.98550      0.00000      1.98550         0.000000      0.000000      0.000000
      1.98550      1.98550      0.00000         0.000000     -0.000000     -0.000000
    total drift:                               -0.000000      0.000000      0.000000

  FREE ENERGIE OF THE ION-ELECTRON SYSTEM (eV)
  free  energy   TOTEN  =       -13.80842675 eV

  energy  without entropy=      -13.80711978  energy(sigma->0) =      -13.80799109