 vasp.5.4.1 05Feb16 (build Feb 08 2018 09:21:51) complex

 executed on             LinuxIFC date 2019.11.21  23:36:34

 INCAR:
 POTCAR:    PAW_PBE Ag 02Apr2005
 POTCAR:    PAW_PBE O 08Apr2002

 POTCAR:    PAW_PBE Ag 02Apr2005
   VRHFIN =Ag : s1 d10

   TITEL  = PAW_PBE Ag 02Apr2005
   POMASS =  107.868; ZVAL   =   11.000    mass and valenz
   ENMAX  =  249.844; ENMIN  =  187.383 eV

 POTCAR:    PAW_PBE O 08Apr2002
   VRHFIN =O: s2p4

   TITEL  = PAW_PBE O 08Apr2002
   POMASS =   16.000; ZVAL   =    6.000    mass and valenz
   ENMAX  =  400.000; ENMIN  =  300.000 eV

  PAW_PBE Ag 02Apr2005                  :
  PAW_PBE O 08Apr2002                   :

 POSCAR: Ag  O
  positions in cartesian coordinates
 exchange correlation table for  LEXCH =        8
   RHO(1)=    0.500       N(1)  =     2000
   RHO(2)=  100.500       N(2)  =     4000

 ion  position               nearest neighbor table
   1  0.167  0.167  0.403-   8 2.93   5 2.93   3 2.93   3 2.93   4 2.93   4 2.93   2 2.93   2 2.93
                             6 2.93
   2  0.667  0.167  0.403-   7 2.93   6 2.93   4 2.93   3 2.93   4 2.93   3 2.93   1 2.93   1 2.93
                             5 2.93
   3  0.167  0.667  0.403-   6 2.93   7 2.93   1 2.93   1 2.93   2 2.93   2 2.93   4 2.93   4 2.93
                             8 2.93
   4  0.667  0.667  0.403-   5 2.93   8 2.93   2 2.93   1 2.93   2 2.93   1 2.93   3 2.93   3 2.93
                             7 2.93
   5  0.833  0.333  0.500-   4 2.93   1 2.93  11 2.93   7 2.93   7 2.93   8 2.93   8 2.93   6 2.93
                             6 2.93   9 2.93  12 2.93   2 2.93
   6  0.333  0.333  0.500-   3 2.93   2 2.93  12 2.93   8 2.93   7 2.93   8 2.93   7 2.93   5 2.93
                             5 2.93  11 2.93  10 2.93   1 2.93
   7  0.833  0.833  0.500-   2 2.93   3 2.93   9 2.93   5 2.93   5 2.93   6 2.93   6 2.93   8 2.93
                             8 2.93  10 2.93  11 2.93   4 2.93
   8  0.333  0.833  0.500-   1 2.93   4 2.93  10 2.93   6 2.93   5 2.93   6 2.93   5 2.93   7 2.93
                             7 2.93   9 2.93  12 2.93   3 2.93
   9  0.000  0.000  0.597-  13 2.08   7 2.93  11 2.93  11 2.93  12 2.93  12 2.93  10 2.93  10 2.93
                             8 2.93   5 2.93
  10  0.500  0.000  0.597-  13 2.08   8 2.93  12 2.93  11 2.93  12 2.93  11 2.93   9 2.93   9 2.93
                             6 2.93   7 2.93
  11  0.000  0.500  0.597-  13 2.08   5 2.93   9 2.93   9 2.93  10 2.93  10 2.93  12 2.93  12 2.93
                             7 2.93   6 2.93
  12  0.500  0.500  0.597-   6 2.93  10 2.93   9 2.93  10 2.93   9 2.93  11 2.93  11 2.93   5 2.93
                             8 2.93
  13  0.167  0.167  0.645-   9 2.08  10 2.08  11 2.08

  LATTYP: Found a hexagonal cell.
 ALAT       =     5.8647436432
 C/A-ratio  =     4.2267053159

  Lattice vectors:

 A1 = (   2.9323718216,  -5.0790169817,   0.0000000000)
 A2 = (  -5.8647436432,   0.0000000000,   0.0000000000)
 A3 = (   0.0000000000,   0.0000000000, -24.7885431327)

Analysis of symmetry for initial positions (statically):
 Subroutine PRICEL returns:
 Original cell was already a primitive cell.

 Routine SETGRP: Setting up the symmetry group for a
 hexagonal supercell.

 Subroutine GETGRP returns: Found  6 space group operations
 (whereof  2 operations were pure point group operations)
 out of a pool of 24 trial point group operations.

The static configuration has the point symmetry C_1h.
 The point group associated with its full space group is C_3v.

Analysis of symmetry for dynamics (positions and initial velocities):
 Subroutine PRICEL returns:
 Original cell was already a primitive cell.

 Routine SETGRP: Setting up the symmetry group for a
 hexagonal supercell.

 Subroutine GETGRP returns: Found  6 space group operations
 (whereof  2 operations were pure point group operations)
 out of a pool of 24 trial point group operations.

The dynamic configuration has the point symmetry C_1h.
 The point group associated with its full space group is C_3v.

 Subroutine INISYM returns: Found  6 space group operations
 (whereof  2 operations are pure point group operations),
 and found     1 'primitive' translations

 KPOINTS: KPOINTS created by Atomic Simulation Env

Automatic generation of k-mesh.
Space group operators:
 irot       det(A)        alpha          n_x          n_y          n_z        tau_x        tau_y        tau_z
    1     1.000000     0.000001     1.000000     0.000000     0.000000     0.000000     0.000000     0.000000
    2    -1.000000   180.000000     0.500000    -0.866025     0.000000     0.000000     0.000000     0.000000
    3     1.000000   120.000000     0.000000     0.000000     1.000000     0.000000    -0.500000     0.000000
    4     1.000000   120.000000     0.000000     0.000000    -1.000000    -0.500000    -0.000000     0.000000
    5    -1.000000   179.999999     1.000000     0.000000     0.000000    -0.500000     0.000000     0.000000
    6    -1.000000   180.000000    -0.500000    -0.866025     0.000000     0.000000    -0.500000     0.000000

 Subroutine IBZKPT returns following result:

 Found     12 irreducible k-points:

 Following reciprocal coordinates:
            Coordinates               Weight
  0.000000  0.000000  0.000000      1.000000
  0.111111  0.000000  0.000000      6.000000
  0.222222  0.000000  0.000000      6.000000
  0.333333  0.000000  0.000000      6.000000
  0.444444  0.000000  0.000000      6.000000
  0.222222  0.111111  0.000000      6.000000
  0.333333  0.111111  0.000000     12.000000
  0.444444  0.111111  0.000000     12.000000
 -0.444444  0.111111  0.000000      6.000000
  0.444444  0.222222  0.000000      6.000000
 -0.444444  0.222222  0.000000     12.000000
 -0.333333  0.333333  0.000000      2.000000

 Following cartesian coordinates:
            Coordinates               Weight
  0.000000  0.000000  0.000000      1.000000
  0.018946 -0.010938  0.000000      6.000000
  0.037891 -0.021876  0.000000      6.000000
  0.056837 -0.032815  0.000000      6.000000
  0.075782 -0.043753  0.000000      6.000000
  0.037891 -0.000000  0.000000      6.000000
  0.056837 -0.010938  0.000000     12.000000
  0.075782 -0.021876  0.000000     12.000000
 -0.075782  0.065629  0.000000      6.000000
  0.075782  0.000000  0.000000      6.000000
 -0.075782  0.087506  0.000000     12.000000
 -0.056837  0.098444  0.000000      2.000000

 I would recommend the setting:
   dimension x,y,z NGX =    29 NGY =   29 NGZ =  121
 SYSTEM =  unknown system
 POSCAR =  Ag  O

 Startparameter for this run:
   NWRITE =      2    write-flag & timer
   PREC   = normal    normal or accurate (medium, high low for compatibility)
   ISTART =      0    job   : 0-new  1-cont  2-samecut
   ICHARG =      2    charge: 1-file 2-atom 10-const
   ISPIN  =      1    spin polarized calculation?
   LNONCOLLINEAR =      F non collinear calculations
   LSORBIT =      F    spin-orbit coupling
   INIWAV =      1    electr: 0-lowe 1-rand  2-diag
   LASPH  =      F    aspherical Exc in radial PAW
   METAGGA=      F    non-selfconsistent MetaGGA calc.

 Electronic Relaxation 1
   ENCUT  =  400.0 eV  29.40 Ry    5.42 a.u.   9.56  9.56 40.42*2*pi/ulx,y,z
   ENINI  =  400.0     initial cutoff
   ENAUG  =  605.4 eV  augmentation charge cutoff
   NELM   =     60;   NELMIN=  2; NELMDL= -5     # of ELM steps
   EDIFF  = 0.1E-03   stopping-criterion for ELM
   LREAL  =      F    real-space projection
   NLSPLINE    = F    spline interpolate recip. space projectors
   LCOMPAT=      F    compatible to vasp.4.4
   GGA_COMPAT  = T    GGA compatible to vasp.4.4-vasp.4.6
   LMAXPAW     = -100 max onsite density
   LMAXMIX     =    2 max onsite mixed and CHGCAR
   VOSKOWN=      0    Vosko Wilk Nusair interpolation
   ROPT   =    0.00000   0.00000
 Ionic relaxation
   EDIFFG = 0.1E-02   stopping-criterion for IOM
   NSW    =     20    number of steps for IOM
   NBLOCK =      1;   KBLOCK =     20    inner block; outer block
   IBRION =      2    ionic relax: 0-MD 1-quasi-New 2-CG
   NFREE  =      1    steps in history (QN), initial steepest desc. (CG)
   ISIF   =      2    stress and relaxation
   IWAVPR =     11    prediction:  0-non 1-charg 2-wave 3-comb
   ISYM   =      2    0-nonsym 1-usesym 2-fastsym
   LCORR  =      T    Harris-Foulkes like correction to forces

   POTIM  = 0.5000    time-step for ionic-motion
   TEIN   =    0.0    initial temperature
   TEBEG  =    0.0;   TEEND  =   0.0 temperature during run
   SMASS  =  -3.00    Nose mass-parameter (am)
   estimated Nose-frequenzy (Omega)   =  0.10E-29 period in steps =****** mass=  -0.786E-27a.u.
   SCALEE = 1.0000    scale energy and forces
   NPACO  =    256;   APACO  = 16.0  distance and # of slots for P.C.
   PSTRESS=    0.0 pullay stress

  Mass of Ions in am
   POMASS = 107.87 16.00
  Ionic Valenz
   ZVAL   =  11.00  6.00
  Atomic Wigner-Seitz radii
  virtual crystal weights
   VCA    =   1.00  1.00
   NELECT =     138.0000    total number of electrons
   NUPDOWN=      -1.0000    fix difference up-down

 DOS related values:
   EMIN   =  10.00;   EMAX   =-10.00  energy-range for DOS
   EFERMI =   0.00
   ISMEAR =     1;   SIGMA  =   0.10  broadening in eV -4-tet -1-fermi 0-gaus

 Electronic relaxation 2 (details)
   IALGO  =     38    algorithm
   LDIAG  =      T    sub-space diagonalisation (order eigenvalues)
   LSUBROT=      F    optimize rotation matrix (better conditioning)
   TURBO    =      0    0=normal 1=particle mesh
   IRESTART =      0    0=no restart 2=restart with 2 vectors
   NREBOOT  =      0    no. of reboots
   NMIN     =      0    reboot dimension
   EREF     =   0.00    reference energy to select bands
   IMIX   =      4    mixing-type and parameters
     AMIX     =   0.40;   BMIX     =  1.00
     AMIX_MAG =   1.60;   BMIX_MAG =  1.00
     AMIN     =   0.10
     WC   =   100.;   INIMIX=   1;  MIXPRE=   1;  MAXMIX= -45

 Intra band minimization:
   WEIMIN = 0.0010     energy-eigenvalue tresh-hold
   EBREAK =  0.26E-06  absolut break condition
   DEPER  =   0.30     relativ break condition

   TIME   =   0.40     timestep for ELM

  volume/ion in A,a.u.               =      56.80       383.29
  Fermi-wavevector in a.u.,A,eV,Ry     =   0.935997  1.768779 11.919943  0.876091
  Thomas-Fermi vector in A             =   2.062962

 Write flags
   LWAVE  =      F    write WAVECAR
   LCHARG =      F    write CHGCAR
   LVTOT  =      F    write LOCPOT, total local potential
   LVHAR  =      F    write LOCPOT, Hartree potential only
   LELF   =      F    write electronic localiz. function (ELF)
   LORBIT =      0    0 simple, 1 ext, 2 COOP (PROOUT)

 Dipole corrections
   LMONO  =      F    monopole corrections only (constant potential shift)
   LDIPOL =      F    correct potential (dipole corrections)
   IDIPOL =      0    1-x, 2-y, 3-z, 4-all directions
   EPSILON=  1.0000000 bulk dielectric constant

 Exchange correlation treatment:
   GGA     =    --    GGA type
   VOSKOWN=      0    Vosko Wilk Nusair interpolation
   LHFCALC =     F    Hartree Fock is set to
   LHFONE  =     F    Hartree Fock one center treatment
   AEXX    =    0.0000 exact exchange contribution

 Linear response parameters
   LEPSILON=     F    determine dielectric tensor
[...]
  Hartree 60035.12371 60035.12371-58283.95199     0.00000    -0.00000    -0.00000
  E(xc)    -725.16868  -725.16865  -727.45962    -0.00002     0.00001     0.00001
  Local  ************************120733.16940     0.00109    -0.00007    -0.00012
  n-local  -124.43771  -141.64018  -135.79138    -7.91880     0.04344    -0.41397
  augment  1109.51955  1109.52019  1114.65490    -0.00056     0.00001     0.00001
  Kinetic  1760.39890  1765.02595  1776.93688     2.08312    -1.30812     1.05418
  Fock        0.00000     0.00000     0.00000     0.00000     0.00000     0.00000
  Total      -2.11556    -2.11556    -1.32160     0.00000     0.00000    -0.00000
  in kB      -4.59045    -4.59045    -2.86769     0.00000     0.00000    -0.00000

 VOLUME and BASIS-vectors are now :
  energy-cutoff  :      400.00
  volume of cell :      738.38
      direct lattice vectors                 reciprocal lattice vectors
     5.864743643  0.000000000  0.000000000     0.170510437 -0.098444247  0.000000000
     2.932371822  5.079016982  0.000000000     0.000000000  0.196888493  0.000000000
     0.000000000  0.000000000 24.788543133     0.000000000  0.000000000  0.040341217

[...]

 FORCES acting on ions
    electron-ion (+dipol)            ewald-force                    non-local-force                 convergence-correction
   -.474E-05 -.274E-05 0.218E+04   0.237E-11 0.125E-11 -.218E+04   -.867E-17 -.104E-16 -.190E+01   -.745E-10 -.431E-10 0.350E-02
   0.368E-05 0.100E+00 0.218E+04   0.234E-11 0.125E-11 -.218E+04   -.132E-16 -.796E-01 -.154E+01   -.154E-09 0.618E-03 0.195E-02
   0.870E-01 -.502E-01 0.218E+04   0.237E-11 0.130E-11 -.218E+04   -.690E-01 0.398E-01 -.154E+01   0.535E-03 -.309E-03 0.195E-02
   -.870E-01 -.502E-01 0.218E+04   0.234E-11 0.130E-11 -.218E+04   0.690E-01 0.398E-01 -.154E+01   -.535E-03 -.309E-03 0.195E-02
   0.699E+01 -.403E+01 0.144E+03   -.704E+01 0.407E+01 -.144E+03   0.105E-01 -.608E-02 0.177E+00   -.178E-02 0.103E-02 -.133E-01
   -.699E+01 -.403E+01 0.144E+03   0.704E+01 0.407E+01 -.144E+03   -.105E-01 -.608E-02 0.177E+00   0.178E-02 0.103E-02 -.133E-01
   0.448E-06 0.258E-06 0.137E+03   -.413E-11 -.237E-11 -.136E+03   -.173E-17 0.000E+00 -.116E+01   0.552E-09 0.319E-09 -.118E-01
   0.186E-05 0.807E+01 0.144E+03   -.279E-11 -.813E+01 -.144E+03   0.401E-17 0.122E-01 0.177E+00   0.428E-09 -.206E-02 -.133E-01
   0.121E+03 0.700E+02 -.190E+04   -.121E+03 -.699E+02 0.190E+04   -.103E+01 -.595E+00 -.673E+00   -.307E-02 -.177E-02 -.183E-01
   -.121E+03 0.700E+02 -.190E+04   0.121E+03 -.699E+02 0.190E+04   0.103E+01 -.595E+00 -.673E+00   0.307E-02 -.177E-02 -.183E-01
   0.379E-05 -.140E+03 -.190E+04   0.785E-11 0.140E+03 0.190E+04   -.416E-16 0.119E+01 -.673E+00   0.285E-07 0.354E-02 -.183E-01
   -.212E-05 -.122E-05 -.198E+04   -.193E-11 -.106E-11 0.198E+04   -.867E-17 -.520E-17 0.350E+01   -.350E-08 -.202E-08 -.187E-01
   0.380E-04 0.220E-04 -.158E+04   0.939E-11 0.517E-11 0.160E+04   0.781E-17 0.000E+00 -.228E+02   -.328E-09 -.190E-09 -.256E-02
   0.373E-04 0.215E-04 0.286E+02   0.332E-13 -.136E-13 -.159E-11   -.265E-15 -.520E-17 -.285E+02   0.304E-07 0.175E-07 -.119E+00

 POSITION                                       TOTAL-FORCE (eV/Angst)
      1.46619      0.84650     10.00000        -0.000000      0.000000      0.154556
      4.39856      0.84650     10.00000        -0.000000      0.021434      0.013890
      2.93237      3.38601     10.00000         0.018562     -0.010717      0.013890
      5.86474      3.38601     10.00000        -0.018562     -0.010717      0.013890
      5.86474      1.69301     12.39427        -0.044222      0.025532     -0.073646
      2.93237      1.69301     12.39427         0.044222      0.025532     -0.073646
      7.33093      4.23251     12.39427        -0.000000      0.000000      0.313463
      4.39856      4.23251     12.39427        -0.000000     -0.051063     -0.073646
      0.00000      0.00000     14.78854        -0.954636     -0.551159     -0.300273
      2.93237      0.00000     14.78854         0.954636     -0.551159     -0.300273
      1.46619      2.53951     14.78854        -0.000000      1.102318     -0.300273
      4.39856      2.53951     14.78854        -0.000000      0.000000     -0.291541
      1.46619      0.84650     15.98854        -0.000000      0.000000      0.903610
    total drift:                                0.000037      0.000022      0.000502

  FREE ENERGIE OF THE ION-ELECTRON SYSTEM (eV)
  free  energy   TOTEN  =       -35.09131034 eV

  energy  without entropy=      -35.08651939  energy(sigma->0) =      -35.08971336

[...]

 d Force = 0.1174631E+00[-0.462E-02, 0.240E+00]  d Energy = 0.1132945E+00 0.417E-02
 d Force =-0.4470265E+02[-0.501E+02,-0.393E+02]  d Ewald  =-0.4472293E+02 0.203E-01

 Steepest descent step on ions:
 trial-energy change:   -0.113294  1 .order   -0.117463   -0.239550    0.004623
  (g-gl).g = 0.240E+00      g.g   = 0.240E+00  gl.gl    = 0.000E+00
 g(Force)  = 0.240E+00   g(Stress)= 0.000E+00 ortho     = 0.000E+00
 gamma     =   0.00000
 trial     =   1.00000
 opt step  =   0.97896  (harmonic =   0.98107) maximal distance =0.05205961
 next E    =   -35.204653   (d E  =  -0.11334)

[...]

 d Force = 0.2704360E-04[-0.432E-04, 0.973E-04]  d Energy = 0.1198731E-03-0.928E-04
 d Force = 0.1051620E+01[ 0.105E+01, 0.105E+01]  d Ewald  = 0.1051621E+01-0.136E-06

[...]

 d Force = 0.1060050E-01[ 0.930E-02, 0.119E-01]  d Energy = 0.1068612E-01-0.856E-04
 d Force =-0.2880062E+02[-0.287E+02,-0.289E+02]  d Ewald  =-0.2880084E+02 0.217E-03

 Conjugate gradient step on ions:
 trial-energy change:   -0.010686  1 .order   -0.010600   -0.011898   -0.009303
  (g-gl).g = 0.981E-02      g.g   = 0.119E-01  gl.gl    = 0.240E+00
 g(Force)  = 0.119E-01   g(Stress)= 0.000E+00 ortho     = 0.205E-02
 gamma     =   0.04096
 trial     =   0.99579
 opt step  =   3.98316  (harmonic =   4.56624) maximal distance =0.02748182
 next E    =   -35.232004   (d E  =  -0.02728)

[...]

 Conjugate gradient step on ions:
 trial-energy change:   -0.002232  1 .order   -0.001950   -0.003491   -0.000410
  (g-gl).g =-0.479E-03      g.g   = 0.228E-02  gl.gl    = 0.119E-01
 g(Force)  = 0.228E-02   g(Stress)= 0.000E+00 ortho     = 0.231E-02
 gamma     =  -0.04040
 trial     =   1.59327
 opt step  =   1.80540  (harmonic =   1.80540) maximal distance =0.00435178
 next E    =   -35.234795   (d E  =  -0.00198)

[...]

 Conjugate gradient step on ions:
 trial-energy change:   -0.001926  1 .order   -0.001674   -0.002384   -0.000964
  (g-gl).g = 0.126E-02      g.g   = 0.154E-02  gl.gl    = 0.228E-02
 g(Force)  = 0.154E-02   g(Stress)= 0.000E+00 ortho     = 0.196E-03
 gamma     =   0.54963
 trial     =   1.44479
 opt step  =   2.42610  (harmonic =   2.42610) maximal distance =0.00734942
 next E    =   -35.237089   (d E  =  -0.00200)

 FEWALD executed in parallel

[...]

 eigenvalue-minimisations  :  2664
 total energy-change (2. order) :-0.4602798E-03  (-0.4881113E-03)
 number of electron     138.0000169 magnetization
 augmentation part       63.7795419 magnetization

 Broyden mixing:
  rms(total) = 0.57313E-02    rms(broyden)= 0.57270E-02
  rms(prec ) = 0.62392E-02
  weight for this iteration     100.00

 eigenvalues of (default mixing * dielectric matrix)
  average eigenvalue GAMMA=   0.7403
  0.7403

[...]

----------------------------------------- Iteration    9(   3)  ---------------------------------------

 eigenvalue-minimisations  :  1656
 total energy-change (2. order) : 0.1805105E-04  (-0.4668371E-04)
 number of electron     138.0000169 magnetization
 augmentation part       63.7795419 magnetization

 Free energy of the ion-electron system (eV)
  alpha Z        PSCENC =       177.74950842
  Ewald energy   TEWEN  =     49279.48146557
  -Hartree energ DENC   =    -62042.99420209
  -exchange      EXHF   =         0.00000000
  -V(xc)+E(xc)   XCENC  =      -105.60379634
  PAW double counting   =     13610.61792134   -13085.62504391
  entropy T*S    EENTRO =        -0.00375054
  eigenvalues    EBANDS =      -748.22416162
  atomic energy  EATOM  =     12879.36433655
  Solvation  Ediel_sol  =         0.00000000
  free energy    TOTEN  =       -35.23772263 eV

  energy without entropy =      -35.23397208  energy(sigma->0) =      -35.23647244

 average (electrostatic) potential at core
  the test charge radii are     1.1249  0.7215
  (the norm of the test charge is              1.0000)
       1 -80.2066       2 -80.0882       3 -80.0882       4 -80.0882       5 -80.3307
       6 -80.3307       7 -80.3762       8 -80.3307       9 -80.0623      10 -80.0623
      11 -80.0623      12 -80.1881      13 -76.2109

 E-fermi :  -1.1835     XC(G=0):  -4.2257     alpha+bet : -3.8318

[...]

 k-point    12 :      -0.3333    0.3333    0.0000
  band No.  band energies     occupation
      1     -18.4147      2.00000
      2      -7.0353      2.00000
      3      -6.7092      2.00000
      4      -6.6988      2.00000
      5      -6.5294      2.00000
      6      -6.5255      2.00000
      7      -6.5154      2.00000
      8      -6.4981      2.00000
      9      -6.4864      2.00000
     10      -6.4540      2.00000
     11      -6.4325      2.00000
     12      -6.4092      2.00000
     13      -6.4040      2.00000
     14      -6.4002      2.00000
     15      -6.3786      2.00000
     16      -6.3387      2.00000
     17      -6.2164      2.00000
     18      -6.1504      2.00000
     19      -6.1125      2.00000
     20      -6.0728      2.00000
     21      -5.9941      2.00000
     22      -5.9024      2.00000
     23      -5.8996      2.00000
     24      -5.8228      2.00000
     25      -5.8181      2.00000
     26      -5.7352      2.00000
     27      -5.7294      2.00000
     28      -5.7078      2.00000
     29      -5.7073      2.00000
     30      -5.6602      2.00000
     31      -5.6591      2.00000
     32      -5.5714      2.00000
     33      -5.5416      2.00000
     34      -5.5255      2.00000
     35      -5.4243      2.00000
     36      -5.4201      2.00000
     37      -5.4003      2.00000
     38      -5.3838      2.00000
     39      -5.3767      2.00000
     40      -5.3184      2.00000
     41      -5.2549      2.00000
     42      -5.1440      2.00000
     43      -4.9772      2.00000
     44      -4.9413      2.00000
     45      -4.9190      2.00000
     46      -4.8904      2.00000
     47      -4.8837      2.00000
     48      -4.7863      2.00000
     49      -4.7758      2.00000
     50      -4.6871      2.00000
     51      -4.6731      2.00000
     52      -4.5290      2.00000
     53      -4.5101      2.00000
     54      -4.4473      2.00000
     55      -4.4316      2.00000
     56      -4.4173      2.00000
     57      -4.3815      2.00000
     58      -4.3416      2.00000
     59      -4.3111      2.00000
     60      -4.2856      2.00000
[...]
     82       4.6993      0.00000
     83       4.9483      0.00000
     84       4.9671      0.00000
     85       5.1455      0.00000
     86       5.7453      0.00000
     87       5.7596      0.00000
     88       5.8249      0.00000
     89       5.9080      0.00000
     90       5.9134      0.00000
     91       5.9923      0.00000
     92       6.2836      0.00000
     93       6.5849      0.00000
     94       6.9174      0.00000
     95       7.0012      0.00000
     96       7.0283      0.00000

 soft charge-density along one line, spin component           1
         0         1         2         3         4         5         6         7         8         9
 total charge-density along one line

------------------------ aborting loop because EDIFF is reached ----------------------------------------

  FORCE on cell =-STRESS in cart. coord.  units (eV):
  Direction    XX          YY          ZZ          XY          YZ          ZX
  Alpha Z   177.74951   177.74951   177.74951
  Ewald   57127.85473 57127.85473-64976.24099     0.00000     0.00000    -0.00000
  Hartree 60315.03444 60315.03444-58586.96474     0.00000    -0.00000    -0.00000
  E(xc)    -725.17816  -725.17814  -727.52619    -0.00002     0.00001     0.00001
  Local  ************************121355.47526     0.00107    -0.00009    -0.00015
  n-local  -123.63749  -140.41364  -134.94687    -7.57181     0.09817    -0.45426
  augment  1109.40715  1109.40772  1114.44888    -0.00050     0.00001     0.00002
  Kinetic  1759.97352  1764.77525  1776.56179     2.17826    -1.29061     1.17047
  Fock        0.00000     0.00000     0.00000     0.00000     0.00000     0.00000
  Total      -2.37201    -2.37201    -1.44334     0.00000     0.00000     0.00000
  in kB      -5.14692    -5.14692    -3.13185     0.00000     0.00000     0.00000

 VOLUME and BASIS-vectors are now :
  energy-cutoff  :      400.00
  volume of cell :      738.38
      direct lattice vectors                 reciprocal lattice vectors
     5.864743643  0.000000000  0.000000000     0.170510437 -0.098444247  0.000000000
     2.932371822  5.079016982  0.000000000     0.000000000  0.196888493  0.000000000
     0.000000000  0.000000000 24.788543133     0.000000000  0.000000000  0.040341217

  length of vectors
     5.864743643  5.864743643 24.788543133     0.196888493  0.196888493  0.040341217

 FORCES acting on ions
    electron-ion (+dipol)            ewald-force                    non-local-force                 convergence-correction
   -.639E-05 -.369E-05 0.217E+04   0.168E-10 0.989E-11 -.217E+04   -.347E-17 0.347E-17 -.228E+01   0.439E-07 0.254E-07 0.116E+00
   0.294E-05 0.214E+01 0.219E+04   -.747E-11 -.200E+01 -.219E+04   -.304E-17 -.108E+00 -.156E+01   -.463E-06 -.158E-01 0.775E-01
   0.185E+01 -.107E+01 0.219E+04   -.173E+01 0.100E+01 -.219E+04   -.934E-01 0.539E-01 -.156E+01   -.136E-01 0.788E-02 0.775E-01
   -.185E+01 -.107E+01 0.219E+04   0.173E+01 0.100E+01 -.219E+04   0.934E-01 0.539E-01 -.156E+01   0.136E-01 0.788E-02 0.775E-01
   -.240E+01 0.138E+01 0.146E+03   0.228E+01 -.132E+01 -.147E+03   0.620E-01 -.358E-01 0.263E+00   0.453E-01 -.261E-01 0.193E+00
   0.240E+01 0.138E+01 0.146E+03   -.228E+01 -.132E+01 -.147E+03   -.620E-01 -.358E-01 0.263E+00   -.453E-01 -.261E-01 0.193E+00
   0.497E-06 0.287E-06 0.133E+03   -.144E-10 0.168E-10 -.131E+03   0.867E-17 0.694E-17 -.152E+01   -.419E-07 -.242E-07 0.210E+00
   0.138E-05 -.277E+01 0.146E+03   0.142E-10 0.264E+01 -.147E+03   -.954E-17 0.716E-01 0.263E+00   0.120E-05 0.523E-01 0.193E+00
   0.582E+02 0.336E+02 -.193E+04   -.582E+02 -.336E+02 0.193E+04   -.632E-02 -.365E-02 -.293E+00   0.418E-02 0.241E-02 0.164E+00
   -.582E+02 0.336E+02 -.193E+04   0.582E+02 -.336E+02 0.193E+04   0.632E-02 -.365E-02 -.293E+00   -.418E-02 0.241E-02 0.164E+00
   0.474E-05 -.672E+02 -.193E+04   -.742E-11 0.672E+02 0.193E+04   -.111E-16 0.730E-02 -.293E+00   0.249E-06 -.483E-02 0.164E+00
   -.617E-06 -.356E-06 -.194E+04   0.127E-10 0.762E-11 0.193E+04   -.434E-17 0.000E+00 0.387E+01   -.653E-07 -.377E-07 -.545E-01
   0.325E-04 0.188E-04 -.156E+04   0.111E-10 0.632E-11 0.158E+04   -.130E-16 0.260E-17 -.212E+02   -.750E-07 -.433E-07 0.118E-01
   0.341E-04 0.197E-04 0.243E+02   0.163E-13 -.250E-14 -.114E-11   -.103E-15 -.243E-16 -.259E+02   0.643E-07 0.371E-07 0.159E+01

 POSITION                                       TOTAL-FORCE (eV/Angst)
      1.46619      0.84650     10.04627        -0.000000     -0.000000     -0.002340
      4.39856      0.84458     10.00664        -0.000000      0.012442      0.008786
      2.93071      3.38697     10.00664         0.010775     -0.006221      0.008786
      5.86641      3.38697     10.00664        -0.010775     -0.006221      0.008786
      5.86623      1.69215     12.38417        -0.008980      0.005185     -0.016710
      2.93089      1.69215     12.38417         0.008980      0.005185     -0.016710
      7.33093      4.23251     12.43020        -0.000000     -0.000000      0.003731
      4.39856      4.23423     12.38417        -0.000000     -0.010369     -0.016710
     -0.06634     -0.03830     14.79961         0.019975      0.011533      0.020772
      2.99872     -0.03830     14.79961        -0.019975      0.011533      0.020772
      1.46619      2.61612     14.79961         0.000000     -0.023066      0.020772
      4.39856      2.53951     14.69343        -0.000000     -0.000000     -0.027823
      1.46619      0.84650     15.97860        -0.000000     -0.000000     -0.012114
    total drift:                                0.000034      0.000020      0.019520

  FREE ENERGIE OF THE ION-ELECTRON SYSTEM (eV)
  free  energy   TOTEN  =       -35.23772263 eV

  energy  without entropy=      -35.23397208  energy(sigma->0) =      -35.23647244

 d Force = 0.3546605E-03[ 0.544E-04, 0.655E-03]  d Energy = 0.7092511E-03-0.355E-03
 d Force =-0.2743199E+02[-0.274E+02,-0.274E+02]  d Ewald  =-0.2743200E+02 0.971E-05

 reached required accuracy - stopping structural energy minimisation