 vasp.5.4.1 05Feb16 (build Feb 08 2018 09:21:51) complex

 executed on             LinuxIFC date 2019.11.21  23:49:11

 INCAR:
 POTCAR:    PAW_PBE Cu 22Jun2005

 POTCAR:    PAW_PBE Cu 22Jun2005
   VRHFIN =Cu: d10 p1

   TITEL  = PAW_PBE Cu 22Jun2005
   POMASS =   63.546; ZVAL   =   11.000    mass and valenz
   ENMAX  =  295.446; ENMIN  =  221.585 eV

  PAW_PBE Cu 22Jun2005                  :

 POSCAR: Cu
  positions in cartesian coordinates
 exchange correlation table for  LEXCH =        8
   RHO(1)=    0.500       N(1)  =     2000
   RHO(2)=  100.500       N(2)  =     4000

 ion  position               nearest neighbor table
   1  0.167  0.167  0.415-   6 2.54   5 2.54   8 2.54   4 2.57   4 2.57   2 2.57   2 2.57   3 2.57
                             3 2.57
   2  0.667  0.167  0.415-   5 2.54   6 2.54   7 2.54   3 2.57   3 2.57   1 2.57   1 2.57   4 2.57
                             4 2.57
   3  0.167  0.667  0.415-   8 2.54   7 2.54   6 2.54   2 2.57   2 2.57   4 2.57   4 2.57   1 2.57
                             1 2.57
   4  0.667  0.667  0.415-   7 2.54   8 2.54   5 2.54   1 2.57   1 2.57   3 2.57   3 2.57   2 2.57
                             2 2.57
   5  0.833  0.333  0.500-   2 2.54  12 2.54   9 2.54   1 2.54   4 2.54  11 2.54   8 2.57   8 2.57
                             6 2.57   6 2.57   7 2.57   7 2.57
   6  0.333  0.333  0.500-   1 2.54  11 2.54  10 2.54   2 2.54   3 2.54  12 2.54   7 2.57   7 2.57
                             5 2.57   5 2.57   8 2.57   8 2.57
   7  0.833  0.833  0.500-   4 2.54  10 2.54  11 2.54   3 2.54   2 2.54   9 2.54   6 2.57   6 2.57
                             8 2.57   8 2.57   5 2.57   5 2.57
   8  0.333  0.833  0.500-   3 2.54   9 2.54  12 2.54   4 2.54   1 2.54  10 2.54   5 2.57   5 2.57
                             7 2.57   7 2.57   6 2.57   6 2.57
   9  0.000  0.000  0.585-   8 2.54   5 2.54   7 2.54  12 2.57  12 2.57  10 2.57  10 2.57  11 2.57
                            11 2.57
  10  0.500  0.000  0.585-   7 2.54   6 2.54   8 2.54  11 2.57  11 2.57   9 2.57   9 2.57  12 2.57
                            12 2.57
  11  0.000  0.500  0.585-   6 2.54   7 2.54   5 2.54  10 2.57  10 2.57  12 2.57  12 2.57   9 2.57
                             9 2.57
  12  0.500  0.500  0.585-   5 2.54   8 2.54   6 2.54   9 2.57   9 2.57  11 2.57  11 2.57  10 2.57
                            10 2.57

  LATTYP: Found a hexagonal cell.
 ALAT       =     5.1420805075
 C/A-ratio  =     4.7059728304

  Lattice vectors:

 A1 = (   2.5710402500,  -4.4531723500,   0.0000000000)
 A2 = (  -5.1420805100,   0.0000000000,   0.0000000000)
 A3 = (   0.0000000000,   0.0000000000, -24.1984911600)

Analysis of symmetry for initial positions (statically):
 Subroutine PRICEL returns following result:

[...]

   4 primitive cells build up your supercell.

 Routine SETGRP: Setting up the symmetry group for a
 hexagonal supercell.

 Subroutine GETGRP returns: Found 12 space group operations
 (whereof  6 operations were pure point group operations)
 out of a pool of 24 trial point group operations.

The static configuration has the point symmetry C_3v.
 The point group associated with its full space group is D_3d.

Analysis of symmetry for dynamics (positions and initial velocities):
 Subroutine PRICEL returns following result:

  LATTYP: Found a hexagonal cell.
 ALAT       =     2.5710402538
 C/A-ratio  =     9.4119456607

  Lattice vectors:

 A1 = (   1.2855201250,  -2.2265861750,   0.0000000000)
 A2 = (  -2.5710402550,   0.0000000000,   0.0000000000)
 A3 = (   0.0000000000,   0.0000000000, -24.1984911600)

   4 primitive cells build up your supercell.

 Routine SETGRP: Setting up the symmetry group for a
 hexagonal supercell.

 Subroutine GETGRP returns: Found 12 space group operations
 (whereof  6 operations were pure point group operations)
 out of a pool of 24 trial point group operations.

The dynamic configuration has the point symmetry C_3v.
 The point group associated with its full space group is D_3d.

 Subroutine INISYM returns: Found 12 space group operations
 (whereof  6 operations are pure point group operations),
 and found     4 'primitive' translations

 KPOINTS: KPOINTS created by Atomic Simulation Env

Automatic generation of k-mesh.
Space group operators:
 irot       det(A)        alpha          n_x          n_y          n_z        tau_x        tau_y        tau_z
    1     1.000000     0.000000     1.000000     0.000000     0.000000     0.000000     0.000000     0.000000
    2     1.000000   120.000000     0.000000     0.000000     1.000000     0.000000     0.000000     0.000000
    3     1.000000   120.000000     0.000000     0.000000    -1.000000     0.000000     0.000000     0.000000
    4    -1.000000   180.000000     0.500000    -0.866025     0.000000     0.000000     0.000000     0.000000
    5    -1.000000   180.000000     1.000000    -0.000000     0.000000     0.000000     0.000000     0.000000
    6    -1.000000   179.999999    -0.500000    -0.866025     0.000000     0.000000     0.000000     0.000000
    7    -1.000000     0.000000     1.000000     0.000000     0.000000     0.166667    -0.333333     0.000000
    8    -1.000000   120.000000     0.000000     0.000000     1.000000     0.166667    -0.333333     0.000000
    9    -1.000000   120.000000     0.000000     0.000000    -1.000000     0.166667    -0.333333     0.000000
   10     1.000000   180.000000     0.500000    -0.866025     0.000000     0.166667    -0.333333     0.000000
   11     1.000000   180.000000     1.000000    -0.000000     0.000000     0.166667    -0.333333     0.000000
   12     1.000000   179.999999    -0.500000    -0.866025     0.000000     0.166667    -0.333333     0.000000

 Subroutine IBZKPT returns following result:

 Found     12 irreducible k-points:

 Following reciprocal coordinates:
            Coordinates               Weight
  0.000000  0.000000  0.000000      1.000000
  0.111111  0.000000  0.000000      6.000000
  0.222222  0.000000  0.000000      6.000000
  0.333333 -0.000000  0.000000      6.000000
  0.444444  0.000000  0.000000      6.000000
  0.222222  0.111111  0.000000      6.000000
  0.333333  0.111111  0.000000     12.000000
  0.444444  0.111111  0.000000     12.000000
 -0.444444  0.111111  0.000000      6.000000
  0.444444  0.222222  0.000000      6.000000
 -0.444444  0.222222  0.000000     12.000000
 -0.333333  0.333333  0.000000      2.000000

 Following cartesian coordinates:
            Coordinates               Weight
  0.000000  0.000000  0.000000      1.000000
  0.021608 -0.012476  0.000000      6.000000
  0.043216 -0.024951  0.000000      6.000000
  0.064825 -0.037427  0.000000      6.000000
  0.086433 -0.049902  0.000000      6.000000
  0.043216 -0.000000  0.000000      6.000000
  0.064825 -0.012476  0.000000     12.000000
  0.086433 -0.024951  0.000000     12.000000
 -0.086433  0.074853  0.000000      6.000000
  0.086433 -0.000000  0.000000      6.000000
 -0.086433  0.099804  0.000000     12.000000
 -0.064825  0.112280  0.000000      2.000000

 I would recommend the setting:
   dimension x,y,z NGX =    25 NGY =   25 NGZ =  118
 SYSTEM =  unknown system
 POSCAR =  Cu

 Startparameter for this run:
   NWRITE =      2    write-flag & timer
   PREC   = normal    normal or accurate (medium, high low for compatibility)
   ISTART =      0    job   : 0-new  1-cont  2-samecut
   ICHARG =      2    charge: 1-file 2-atom 10-const
   ISPIN  =      1    spin polarized calculation?
   LNONCOLLINEAR =      F non collinear calculations
   LSORBIT =      F    spin-orbit coupling
   INIWAV =      1    electr: 0-lowe 1-rand  2-diag
   LASPH  =      F    aspherical Exc in radial PAW
   METAGGA=      F    non-selfconsistent MetaGGA calc.

 Electronic Relaxation 1
   ENCUT  =  400.0 eV  29.40 Ry    5.42 a.u.   8.39  8.39 39.46*2*pi/ulx,y,z
   ENINI  =  400.0     initial cutoff
   ENAUG  =  587.0 eV  augmentation charge cutoff
   NELM   =     60;   NELMIN=  2; NELMDL= -5     # of ELM steps
   EDIFF  = 0.1E-03   stopping-criterion for ELM
   LREAL  =      F    real-space projection
   NLSPLINE    = F    spline interpolate recip. space projectors
   LCOMPAT=      F    compatible to vasp.4.4
   GGA_COMPAT  = T    GGA compatible to vasp.4.4-vasp.4.6
   LMAXPAW     = -100 max onsite density
   LMAXMIX     =    2 max onsite mixed and CHGCAR
   VOSKOWN=      0    Vosko Wilk Nusair interpolation
   ROPT   =    0.00000
 Ionic relaxation
   EDIFFG = 0.1E-02   stopping-criterion for IOM
   NSW    =      0    number of steps for IOM
   NBLOCK =      1;   KBLOCK =      1    inner block; outer block
   IBRION =     -1    ionic relax: 0-MD 1-quasi-New 2-CG
   NFREE  =      0    steps in history (QN), initial steepest desc. (CG)
   ISIF   =      2    stress and relaxation
   IWAVPR =     10    prediction:  0-non 1-charg 2-wave 3-comb
   ISYM   =      2    0-nonsym 1-usesym 2-fastsym
   LCORR  =      T    Harris-Foulkes like correction to forces

   POTIM  = 0.5000    time-step for ionic-motion
   TEIN   =    0.0    initial temperature
   TEBEG  =    0.0;   TEEND  =   0.0 temperature during run
   SMASS  =  -3.00    Nose mass-parameter (am)
   estimated Nose-frequenzy (Omega)   =  0.10E-29 period in steps =****** mass=  -0.604E-27a.u.
   SCALEE = 1.0000    scale energy and forces
   NPACO  =    256;   APACO  = 16.0  distance and # of slots for P.C.
   PSTRESS=    0.0 pullay stress

  Mass of Ions in am
   POMASS =  63.55
  Ionic Valenz
   ZVAL   =  11.00
  Atomic Wigner-Seitz radii
  virtual crystal weights
   VCA    =   1.00
   NELECT =     132.0000    total number of electrons
   NUPDOWN=      -1.0000    fix difference up-down

 DOS related values:
   EMIN   =  10.00;   EMAX   =-10.00  energy-range for DOS
   EFERMI =   0.00
   ISMEAR =     1;   SIGMA  =   0.10  broadening in eV -4-tet -1-fermi 0-gaus

 Electronic relaxation 2 (details)
   IALGO  =     38    algorithm
   LDIAG  =      T    sub-space diagonalisation (order eigenvalues)
   LSUBROT=      F    optimize rotation matrix (better conditioning)
   TURBO    =      0    0=normal 1=particle mesh
   IRESTART =      0    0=no restart 2=restart with 2 vectors
   NREBOOT  =      0    no. of reboots
   NMIN     =      0    reboot dimension
   EREF     =   0.00    reference energy to select bands
   IMIX   =      4    mixing-type and parameters
     AMIX     =   0.40;   BMIX     =  1.00
     AMIX_MAG =   1.60;   BMIX_MAG =  1.00
     AMIN     =   0.10
     WC   =   100.;   INIMIX=   1;  MIXPRE=   1;  MAXMIX= -45

 Intra band minimization:
   WEIMIN = 0.0000     energy-eigenvalue tresh-hold
   EBREAK =  0.26E-06  absolut break condition
   DEPER  =   0.30     relativ break condition

   TIME   =   0.40     timestep for ELM

  volume/ion in A,a.u.               =      46.18       311.61
  Fermi-wavevector in a.u.,A,eV,Ry     =   1.014847  1.917783 14.012838  1.029915
  Thomas-Fermi vector in A             =   2.148098

 Write flags
   LWAVE  =      F    write WAVECAR
   LCHARG =      F    write CHGCAR
   LVTOT  =      F    write LOCPOT, total local potential
   LVHAR  =      F    write LOCPOT, Hartree potential only
   LELF   =      F    write electronic localiz. function (ELF)
   LORBIT =     10    0 simple, 1 ext, 2 COOP (PROOUT)

[...]
 k-point  2 :   0.1111 0.0000 0.0000  plane waves:   10127
 k-point  3 :   0.2222 0.0000 0.0000  plane waves:   10089
 k-point  4 :   0.3333-0.0000 0.0000  plane waves:   10064
 k-point  5 :   0.4444 0.0000 0.0000  plane waves:   10042
 k-point  6 :   0.2222 0.1111 0.0000  plane waves:   10097
 k-point  7 :   0.3333 0.1111 0.0000  plane waves:   10059
 k-point  8 :   0.4444 0.1111 0.0000  plane waves:   10045
 k-point  9 :  -0.4444 0.1111 0.0000  plane waves:   10036
 k-point 10 :   0.4444 0.2222 0.0000  plane waves:   10078
 k-point 11 :  -0.4444 0.2222 0.0000  plane waves:   10068
 k-point 12 :  -0.3333 0.3333 0.0000  plane waves:   10044

 maximum and minimum number of plane-waves per node :     10129    10036

 maximum number of plane-waves:     10129
 maximum index in each direction:
   IXMAX=    8   IYMAX=    8   IZMAX=   39
   IXMIN=   -8   IYMIN=   -8   IZMIN=  -39

 WARNING: aliasing errors must be expected set NGX to  34 to avoid them
 WARNING: aliasing errors must be expected set NGY to  34 to avoid them
 WARNING: aliasing errors must be expected set NGZ to 158 to avoid them
 aliasing errors are usually negligible using standard VASP settings
 and one can safely disregard these warnings

 serial   3D FFT for wavefunctions
 parallel 3D FFT for charge:
    minimum data exchange during FFTs selected (reduces bandwidth)

 Broyden mixing: mesh for mixing (old mesh)
   NGX = 17   NGY = 17   NGZ = 79
  (NGX  = 56   NGY  = 56   NGZ  =240)
  gives a total of  22831 points

 initial charge density was supplied:
 charge density of overlapping atoms calculated
 number of electron     132.0000000 magnetization
 keeping initial charge density in first step

 Maximum index for augmentation-charges          470 (set IRDMAX)

 First call to EWALD:  gamma=   0.216
 Maximum number of real-space cells 5x 5x 1
 Maximum number of reciprocal cells 2x 2x 7

 FEWALD executed in parallel

----------------------------------------- Iteration    1(   1)  ---------------------------------------

 eigenvalue-minimisations  :  2304
 total energy-change (2. order) : 0.9907365E+03  (-0.4736222E+04)
 number of electron     132.0000000 magnetization
 augmentation part      132.0000000 magnetization

 Free energy of the ion-electron system (eV)
  alpha Z        PSCENC =       190.05445405
  Ewald energy   TEWEN  =     66568.58895233
  -Hartree energ DENC   =    -82324.57319203
  -exchange      EXHF   =         0.00000000
  -V(xc)+E(xc)   XCENC  =       545.39014460
  PAW double counting   =     14738.47991854   -16008.58160551
  entropy T*S    EENTRO =        -0.00403730
  eigenvalues    EBANDS =       589.89014213
  atomic energy  EATOM  =     16691.49168240
  Solvation  Ediel_sol  =         0.00000000
  free energy    TOTEN  =       990.73645919 eV

  energy without entropy =      990.74049650  energy(sigma->0) =      990.73780496

[...]

 eigenvalue-minimisations  :  2304
 total energy-change (2. order) :-0.9811468E+03  (-0.9334799E+03)
 number of electron     132.0000000 magnetization
 augmentation part      132.0000000 magnetization

[...]

 Broyden mixing:
  rms(total) = 0.25467E+01    rms(broyden)= 0.25466E+01
  rms(prec ) = 0.26745E+01
  weight for this iteration     100.00

[...]

 eigenvalues of (default mixing * dielectric matrix)
  average eigenvalue GAMMA=   0.6279
  0.6279

[...]

 eigenvalue-minimisations  :  2832
 total energy-change (2. order) : 0.2735734E-03  (-0.2581179E-03)
 number of electron     131.9999597 magnetization
 augmentation part       84.3117367 magnetization

[...]

 Broyden mixing:
  rms(total) = 0.21181E-03    rms(broyden)= 0.21167E-03
  rms(prec ) = 0.23877E-03
  weight for this iteration     100.00

 eigenvalues of (default mixing * dielectric matrix)
  average eigenvalue GAMMA=   1.9431
  6.7324  4.3918  2.5327  2.5327  1.6062  1.6062  0.3519  1.2049  1.0178  0.8890
  0.8890  0.7270  0.7787

[...]

----------------------------------------- Iteration    1(  19)  ---------------------------------------

 eigenvalue-minimisations  :  1920
 total energy-change (2. order) :-0.4053421E-04  (-0.9981386E-06)
 number of electron     131.9999597 magnetization
 augmentation part       84.3183913 magnetization

 Free energy of the ion-electron system (eV)
  alpha Z        PSCENC =       190.05445405
  Ewald energy   TEWEN  =     66568.58895233
  -Hartree energ DENC   =    -82166.82664246
  -exchange      EXHF   =         0.00000000
  -V(xc)+E(xc)   XCENC  =       533.65056501
  PAW double counting   =     15591.21936284   -16881.83924516
  entropy T*S    EENTRO =        -0.01762311
  eigenvalues    EBANDS =      -567.27184679
  atomic energy  EATOM  =     16691.49168240
  Solvation  Ediel_sol  =         0.00000000
  free energy    TOTEN  =       -40.95034089 eV

  energy without entropy =      -40.93271778  energy(sigma->0) =      -40.94446652

 average (electrostatic) potential at core
  the test charge radii are     0.9430
  (the norm of the test charge is              1.0000)
       1 -72.5381       2 -72.5381       3 -72.5381       4 -72.5381       5 -72.7498
       6 -72.7498       7 -72.7498       8 -72.7498       9 -72.5386      10 -72.5386
      11 -72.5386      12 -72.5386

 E-fermi :  -1.5082     XC(G=0):  -4.0657     alpha+bet : -3.4335

 k-point     1 :       0.0000    0.0000    0.0000
  band No.  band energies     occupation
      1     -10.0808      2.00000
      2      -8.1095      2.00000
      3      -6.6006      2.00000
      4      -6.1784      2.00000
      5      -6.1783      2.00000
      6      -6.1783      2.00000
      7      -5.9911      2.00000
      8      -5.9911      2.00000
      9      -5.9911      2.00000
     10      -5.6049      2.00000
     11      -5.6049      2.00000
     12      -5.6049      2.00000
     13      -5.5592      2.00000
     14      -5.5592      2.00000
     15      -5.5592      2.00000
     16      -4.9075      2.00000
     17      -4.9075      2.00000
     18      -4.9075      2.00000
     19      -4.5074      2.00000
     20      -4.5074      2.00000
     21      -4.5074      2.00000
     22      -4.4393      2.00000
     23      -4.4142      2.00000
     24      -4.4142      2.00000
     25      -4.3772      2.00000
     26      -4.2719      2.00000
     27      -4.2719      2.00000
     28      -4.2645      2.00000
     29      -4.2645      2.00000
     30      -4.2645      2.00000
     31      -4.1422      2.00000
     32      -4.1422      2.00000
     33      -4.0331      2.00000
     34      -4.0331      2.00000
     35      -4.0331      2.00000
     36      -3.6066      2.00000
     37      -3.6066      2.00000
     38      -3.5843      2.00000
     39      -3.5843      2.00000
     40      -3.5842      2.00000
     41      -3.5825      2.00000
     42      -3.5825      2.00000
     43      -3.5825      2.00000
     44      -3.3433      2.00000
     45      -3.3433      2.00000
     46      -3.1570      2.00000
     47      -3.1570      2.00000
     48      -3.1570      2.00000
     49      -3.1191      2.00000
     50      -3.1191      2.00000
     51      -3.1191      2.00000
     52      -3.0969      2.00000
     53      -3.0969      2.00000
     54      -3.0618      2.00000
     55      -3.0618      2.00000
     56      -3.0618      2.00000
     57      -3.0138      2.00000
     58      -2.9056      2.00000
     59      -2.9056      2.00000
     60      -2.9056      2.00000
[...]
     82       4.0604      0.00000
     83       4.3074      0.00000
     84       4.7650      0.00000
     85       4.9002      0.00000
     86       4.9002      0.00000
     87       4.9002      0.00000
     88       6.5000      0.00000
     89       6.5693      0.00000
     90       7.5393      0.00000
     91       7.5393      0.00000
     92       7.5393      0.00000
     93       7.8310      0.00000
     94       7.8311      0.00000
     95       7.8311      0.00000
     96       8.9991      0.00000

[...]

 k-point    12 :      -0.3333    0.3333    0.0000
  band No.  band energies     occupation
      1      -7.7044      2.00000
      2      -7.7044      2.00000
      3      -7.7044      2.00000
      4      -6.1964      2.00000
      5      -6.1964      2.00000
      6      -6.1963      2.00000
      7      -5.3773      2.00000
      8      -5.3059      2.00000
      9      -5.3056      2.00000
     10      -5.2949      2.00000
     11      -5.2949      2.00000
     12      -5.2949      2.00000
     13      -5.1101      2.00000
     14      -5.1100      2.00000
     15      -5.0615      2.00000
     16      -5.0615      2.00000
     17      -5.0615      2.00000
     18      -4.8146      2.00000
     19      -4.8146      2.00000
     20      -4.8146      2.00000
     21      -4.6671      2.00000
     22      -4.6671      2.00000
     23      -4.6671      2.00000
     24      -4.5413      2.00000
     25      -4.5315      2.00000
     26      -4.5315      2.00000
     27      -4.5315      2.00000
     28      -4.4860      2.00000
     29      -4.4860      2.00000
     30      -4.4860      2.00000
     31      -4.2694      2.00000
     32      -4.2689      2.00000
     33      -4.2298      2.00000
     34      -4.2014      2.00000
     35      -4.0720      2.00000
     36      -4.0720      2.00000
     37      -4.0720      2.00000
     38      -4.0532      2.00000
     39      -4.0532      2.00000
     40      -4.0532      2.00000
     41      -3.7944      2.00000
     42      -3.7944      2.00000
     43      -3.7944      2.00000
     44      -3.6251      2.00000
     45      -3.6248      2.00000
     46      -3.5877      2.00000
     47      -3.5877      2.00000
     48      -3.5877      2.00000
     49      -3.5171      2.00000
     50      -3.5171      2.00000
     51      -3.5171      2.00000
     52      -3.2712      2.00000
     53      -3.2712      2.00000
     54      -3.2712      2.00000
     55      -3.2173      2.00000
     56      -3.2170      2.00000
     57      -3.1726      2.00000
     58      -3.1726      2.00000
     59      -3.1726      2.00000
     60      -3.1639      2.00000
[...]
     82       5.5969      0.00000
     83       5.5969      0.00000
     84       5.5969      0.00000
     85       5.7965      0.00000
     86       5.7965      0.00000
     87       5.7965      0.00000
     88       6.5053      0.00000
     89       6.5056      0.00000
     90       6.8470      0.00000
     91       6.8470      0.00000
     92       6.8470      0.00000
     93       7.0795      0.00000
     94       7.0795      0.00000
     95       7.0795      0.00000
     96       7.7551      0.00000

 soft charge-density along one line, spin component           1
         0         1         2         3         4         5         6         7         8         9
 total charge-density along one line

------------------------ aborting loop because EDIFF is reached ----------------------------------------

 total charge

# of ion     s       p       d       tot
  1        0.447   0.286   9.188   9.922
  2        0.447   0.286   9.188   9.922
  3        0.447   0.286   9.188   9.922
  4        0.447   0.286   9.188   9.922
  5        0.443   0.369   9.184   9.996
  6        0.443   0.369   9.184   9.996
  7        0.443   0.369   9.184   9.996
  8        0.443   0.369   9.184   9.996
  9        0.447   0.286   9.188   9.922
 10        0.447   0.286   9.188   9.922
 11        0.447   0.286   9.188   9.922
 12        0.447   0.286   9.188   9.922
tot        5.351   3.768 110.242 119.361

  FORCE on cell =-STRESS in cart. coord.  units (eV):
  Direction    XX          YY          ZZ          XY          YZ          ZX
  Alpha Z   190.05445   190.05445   190.05445
  Ewald   75295.23962 75295.23961-84021.90108     0.00000     0.00000     0.00000
  Hartree 79384.25086 79384.25086-76601.26383     0.00000     0.00000     0.00000
  E(xc)    -769.92850  -769.92831  -772.01680    -0.00017     0.00000     0.00000
  Local  ************************159251.01924     0.00607    -0.00002    -0.00004
  n-local  -256.53035  -271.05764  -269.36536    -7.03678     0.30160    -0.28814
  augment  1132.41021  1132.41689  1139.69240    -0.00579     0.00003     0.00004
  Kinetic  1070.74195  1072.87294  1083.16420     1.97310    -0.59850     1.02879
  Fock        0.00000     0.00000     0.00000     0.00000     0.00000     0.00000
  Total      -4.20405    -4.20405    -0.61677    -0.00000    -0.00000    -0.00000
  in kB     -12.15575   -12.15575    -1.78335    -0.00000    -0.00000    -0.00000

 VOLUME and BASIS-vectors are now :
  energy-cutoff  :      400.00
  volume of cell :      554.11
      direct lattice vectors                 reciprocal lattice vectors
     5.142080510  0.000000000  0.000000000     0.194473812 -0.112279508  0.000000000
     2.571040260  4.453172350  0.000000000     0.000000000  0.224559016  0.000000000
     0.000000000  0.000000000 24.198491160     0.000000000  0.000000000  0.041324891

  length of vectors
     5.142080510  5.142080513 24.198491160     0.224559016  0.224559016  0.041324891

 FORCES acting on ions
    electron-ion (+dipol)            ewald-force                    non-local-force                 convergence-correction
   0.271E-07 0.420E-07 0.283E+04   -.112E-05 -.681E-06 -.283E+04   0.347E-17 -.954E-17 -.211E+01   0.121E-08 0.700E-09 -.163E-01
   0.271E-07 0.420E-07 0.283E+04   -.112E-05 -.681E-06 -.283E+04   -.651E-17 0.173E-17 -.211E+01   0.121E-08 0.700E-09 -.163E-01
   0.271E-07 0.420E-07 0.283E+04   -.112E-05 -.681E-06 -.283E+04   -.390E-17 -.260E-17 -.211E+01   0.121E-08 0.700E-09 -.163E-01
   0.271E-07 0.420E-07 0.283E+04   -.112E-05 -.681E-06 -.283E+04   0.130E-17 -.607E-17 -.211E+01   0.121E-08 0.700E-09 -.163E-01
   -.615E-05 -.355E-05 -.163E-02   0.176E-05 0.102E-05 0.568E-13   0.275E-20 0.847E-21 -.610E-19   -.152E-09 -.875E-10 0.270E-04
   -.615E-05 -.355E-05 -.163E-02   0.176E-05 0.102E-05 0.284E-12   -.169E-20 0.106E-20 0.440E-19   -.152E-09 -.875E-10 0.270E-04
   -.615E-05 -.355E-05 -.163E-02   0.176E-05 0.102E-05 0.000E+00   -.424E-21 0.106E-20 -.339E-20   -.152E-09 -.876E-10 0.270E-04
   -.615E-05 -.355E-05 -.163E-02   0.176E-05 0.102E-05 -.114E-12   0.180E-20 -.424E-21 0.813E-19   -.152E-09 -.875E-10 0.270E-04
   0.400E-05 0.228E-05 -.283E+04   -.642E-06 -.338E-06 0.283E+04   0.434E-18 -.607E-17 0.211E+01   -.861E-09 -.498E-09 0.164E-01
   0.400E-05 0.228E-05 -.283E+04   -.642E-06 -.338E-06 0.283E+04   0.434E-18 0.304E-17 0.211E+01   -.861E-09 -.498E-09 0.164E-01
   0.400E-05 0.228E-05 -.283E+04   -.642E-06 -.338E-06 0.283E+04   -.434E-18 0.737E-17 0.211E+01   -.861E-09 -.498E-09 0.164E-01
   0.400E-05 0.228E-05 -.283E+04   -.642E-06 -.338E-06 0.283E+04   0.304E-17 0.260E-17 0.211E+01   -.861E-09 -.498E-09 0.164E-01
   -.848E-05 -.490E-05 -.113E-01   0.134E-13 -.195E-13 0.000E+00   -.217E-17 -.954E-17 0.222E-14   0.790E-09 0.456E-09 0.263E-03

 POSITION                                       TOTAL-FORCE (eV/Angst)
      1.28552      0.74220     10.03493         0.000000     -0.000000     -0.000809
      3.85656      0.74220     10.03493         0.000000      0.000000     -0.000809
      2.57104      2.96878     10.03493         0.000000     -0.000000     -0.000809
      5.14208      2.96878     10.03493         0.000000      0.000000     -0.000809
      5.14208      1.48439     12.09925        -0.000000      0.000000      0.000000
      2.57104      1.48439     12.09925        -0.000000      0.000000      0.000000
      6.42760      3.71098     12.09925         0.000000     -0.000000      0.000000
      3.85656      3.71098     12.09925         0.000000      0.000000      0.000000
      0.00000      0.00000     14.16356        -0.000000     -0.000000      0.000809
      2.57104      0.00000     14.16356        -0.000000      0.000000      0.000809
      1.28552      2.22659     14.16356        -0.000000      0.000000      0.000809
      3.85656      2.22659     14.16356        -0.000000     -0.000000      0.000809
    total drift:                               -0.000008     -0.000005     -0.011035

  FREE ENERGIE OF THE ION-ELECTRON SYSTEM (eV)
  free  energy   TOTEN  =       -40.95034089 eV

  energy  without entropy=      -40.93271778  energy(sigma->0) =      -40.94446652

 total charge

# of ion     s       p       d       tot
  1        0.447   0.286   9.188   9.922
  2        0.447   0.286   9.188   9.922
  3        0.447   0.286   9.188   9.922
  4        0.447   0.286   9.188   9.922
  5        0.443   0.369   9.184   9.996
  6        0.443   0.369   9.184   9.996
  7        0.443   0.369   9.184   9.996
  8        0.443   0.369   9.184   9.996
  9        0.447   0.286   9.188   9.922
 10        0.447   0.286   9.188   9.922
 11        0.447   0.286   9.188   9.922
 12        0.447   0.286   9.188   9.922
tot        5.351   3.768 110.242 119.361