 vasp.5.4.1 05Feb16 (build Feb 08 2018 09:21:51) complex

 executed on             LinuxIFC date 2019.11.21  15:53:36

 INCAR:
 POTCAR:    PAW_PBE Cu 22Jun2005

 POTCAR:    PAW_PBE Cu 22Jun2005
   VRHFIN =Cu: d10 p1

   TITEL  = PAW_PBE Cu 22Jun2005
   POMASS =   63.546; ZVAL   =   11.000    mass and valenz
   ENMAX  =  295.446; ENMIN  =  221.585 eV

  PAW_PBE Cu 22Jun2005                  :

 POSCAR: Cu
  positions in cartesian coordinates
 exchange correlation table for  LEXCH =        8
   RHO(1)=    0.500       N(1)  =     2000
   RHO(2)=  100.500       N(2)  =     4000

 ion  position               nearest neighbor table
   1  0.000  0.000  0.000-   2 2.55   3 2.55   4 2.55   2 2.55   3 2.55   2 2.55   4 2.55   2 2.55
                             3 2.55   4 2.55   3 2.55   4 2.55
   2  0.000  0.500  0.500-   1 2.55   3 2.55   4 2.55   1 2.55   4 2.55   1 2.55   3 2.55   1 2.55
                             3 2.55   4 2.55   4 2.55   3 2.55
   3  0.500  0.000  0.500-   1 2.55   2 2.55   4 2.55   1 2.55   4 2.55   2 2.55   4 2.55   4 2.55
                             1 2.55   2 2.55   1 2.55   2 2.55
   4  0.500  0.500  0.000-   1 2.55   2 2.55   3 2.55   2 2.55   3 2.55   1 2.55   3 2.55   3 2.55
                             1 2.55   2 2.55   2 2.55   1 2.55

  LATTYP: Found a simple cubic cell.
 ALAT       =     3.6100000000

  Lattice vectors:

 A1 = (   3.6100000000,   0.0000000000,   0.0000000000)
 A2 = (   0.0000000000,   3.6100000000,   0.0000000000)
 A3 = (   0.0000000000,   0.0000000000,   3.6100000000)

Analysis of symmetry for initial positions (statically):
 Subroutine PRICEL returns following result:

  LATTYP: Found a face centered cubic cell.
 ALAT       =     3.6100000000

[...]

   4 primitive cells build up your supercell.

 Routine SETGRP: Setting up the symmetry group for a
 simple cubic supercell.

 Subroutine GETGRP returns: Found 48 space group operations
 (whereof 48 operations were pure point group operations)
 out of a pool of 48 trial point group operations.

The static configuration has the point symmetry O_h .

Analysis of symmetry for dynamics (positions and initial velocities):
 Subroutine PRICEL returns following result:

  LATTYP: Found a face centered cubic cell.
 ALAT       =     3.6100000000

  Lattice vectors:

 A1 = (   1.8050000000,   1.8050000000,  -0.0000000000)
 A2 = (   1.8050000000,   0.0000000000,  -1.8050000000)
 A3 = (   0.0000000000,   1.8050000000,  -1.8050000000)

   4 primitive cells build up your supercell.

 Routine SETGRP: Setting up the symmetry group for a
 simple cubic supercell.

 Subroutine GETGRP returns: Found 48 space group operations
 (whereof 48 operations were pure point group operations)
 out of a pool of 48 trial point group operations.

The dynamic configuration has the point symmetry O_h .

 Subroutine INISYM returns: Found 48 space group operations
 (whereof 48 operations are pure point group operations),
 and found     4 'primitive' translations

 KPOINTS: KPOINTS created by Atomic Simulation Env

Automatic generation of k-mesh.
Space group operators:
 irot       det(A)        alpha          n_x          n_y          n_z        tau_x        tau_y        tau_z
    1     1.000000     0.000000     1.000000     0.000000     0.000000     0.000000     0.000000     0.000000
    2    -1.000000     0.000000     1.000000     0.000000     0.000000     0.000000     0.000000     0.000000
    3     1.000000   120.000000    -0.577350    -0.577350    -0.577350     0.000000     0.000000     0.000000
    4    -1.000000   120.000000    -0.577350    -0.577350    -0.577350     0.000000     0.000000     0.000000
    5     1.000000   120.000000     0.577350     0.577350     0.577350     0.000000     0.000000     0.000000
    6    -1.000000   120.000000     0.577350     0.577350     0.577350     0.000000     0.000000     0.000000
    7     1.000000    90.000000     0.000000     0.000000    -1.000000     0.000000     0.000000     0.000000
    8    -1.000000    90.000000     0.000000     0.000000    -1.000000     0.000000     0.000000     0.000000
    9     1.000000   180.000000     0.000000     0.707107     0.707107     0.000000     0.000000     0.000000
   10    -1.000000   180.000000     0.000000     0.707107     0.707107     0.000000     0.000000     0.000000
   11     1.000000    90.000000     0.000000     1.000000     0.000000     0.000000     0.000000     0.000000
   12    -1.000000    90.000000     0.000000     1.000000     0.000000     0.000000     0.000000     0.000000
   13     1.000000   180.000000     0.000000     0.000000     1.000000     0.000000     0.000000     0.000000
   14    -1.000000   180.000000     0.000000     0.000000     1.000000     0.000000     0.000000     0.000000
   15     1.000000   120.000000    -0.577350     0.577350     0.577350     0.000000     0.000000     0.000000
   16    -1.000000   120.000000    -0.577350     0.577350     0.577350     0.000000     0.000000     0.000000
   17     1.000000   120.000000    -0.577350     0.577350    -0.577350     0.000000     0.000000     0.000000
   18    -1.000000   120.000000    -0.577350     0.577350    -0.577350     0.000000     0.000000     0.000000
   19     1.000000    90.000000     0.000000     0.000000     1.000000     0.000000     0.000000     0.000000
   20    -1.000000    90.000000     0.000000     0.000000     1.000000     0.000000     0.000000     0.000000
   21     1.000000    90.000000    -1.000000     0.000000     0.000000     0.000000     0.000000     0.000000
   22    -1.000000    90.000000    -1.000000     0.000000     0.000000     0.000000     0.000000     0.000000
   23     1.000000   180.000000     0.707107     0.000000     0.707107     0.000000     0.000000     0.000000
   24    -1.000000   180.000000     0.707107     0.000000     0.707107     0.000000     0.000000     0.000000
   25     1.000000   120.000000     0.577350    -0.577350     0.577350     0.000000     0.000000     0.000000
   26    -1.000000   120.000000     0.577350    -0.577350     0.577350     0.000000     0.000000     0.000000
   27     1.000000   120.000000    -0.577350    -0.577350     0.577350     0.000000     0.000000     0.000000
   28    -1.000000   120.000000    -0.577350    -0.577350     0.577350     0.000000     0.000000     0.000000
   29     1.000000   180.000000     1.000000     0.000000     0.000000     0.000000     0.000000     0.000000
   30    -1.000000   180.000000     1.000000     0.000000     0.000000     0.000000     0.000000     0.000000
   31     1.000000    90.000000     0.000000    -1.000000     0.000000     0.000000     0.000000     0.000000
   32    -1.000000    90.000000     0.000000    -1.000000     0.000000     0.000000     0.000000     0.000000
   33     1.000000   180.000000     0.707107     0.707107     0.000000     0.000000     0.000000     0.000000
   34    -1.000000   180.000000     0.707107     0.707107     0.000000     0.000000     0.000000     0.000000
   35     1.000000    90.000000     1.000000     0.000000     0.000000     0.000000     0.000000     0.000000
   36    -1.000000    90.000000     1.000000     0.000000     0.000000     0.000000     0.000000     0.000000
   37     1.000000   120.000000     0.577350    -0.577350    -0.577350     0.000000     0.000000     0.000000
   38    -1.000000   120.000000     0.577350    -0.577350    -0.577350     0.000000     0.000000     0.000000
   39     1.000000   180.000000     0.000000     1.000000     0.000000     0.000000     0.000000     0.000000
   40    -1.000000   180.000000     0.000000     1.000000     0.000000     0.000000     0.000000     0.000000
   41     1.000000   120.000000     0.577350     0.577350    -0.577350     0.000000     0.000000     0.000000
   42    -1.000000   120.000000     0.577350     0.577350    -0.577350     0.000000     0.000000     0.000000
   43     1.000000   180.000000     0.000000    -0.707107     0.707107     0.000000     0.000000     0.000000
   44    -1.000000   180.000000     0.000000    -0.707107     0.707107     0.000000     0.000000     0.000000
   45     1.000000   180.000000     0.707107    -0.707107     0.000000     0.000000     0.000000     0.000000
   46    -1.000000   180.000000     0.707107    -0.707107     0.000000     0.000000     0.000000     0.000000
   47     1.000000   180.000000     0.707107     0.000000    -0.707107     0.000000     0.000000     0.000000
   48    -1.000000   180.000000     0.707107     0.000000    -0.707107     0.000000     0.000000     0.000000

 Subroutine IBZKPT returns following result:

 Found     35 irreducible k-points:

 Following reciprocal coordinates:
            Coordinates               Weight
  0.000000  0.000000  0.000000      1.000000
  0.111111  0.000000  0.000000      6.000000
  0.222222  0.000000  0.000000      6.000000
  0.333333  0.000000  0.000000      6.000000
  0.444444  0.000000  0.000000      6.000000
  0.111111  0.111111  0.000000     12.000000
  0.222222  0.111111  0.000000     24.000000
  0.333333  0.111111  0.000000     24.000000
  0.444444  0.111111  0.000000     24.000000
  0.222222  0.222222  0.000000     12.000000
  0.333333  0.222222  0.000000     24.000000
  0.444444  0.222222  0.000000     24.000000
  0.333333  0.333333  0.000000     12.000000
  0.444444  0.333333  0.000000     24.000000
  0.444444  0.444444  0.000000     12.000000
  0.111111  0.111111  0.111111      8.000000
  0.222222  0.111111  0.111111     24.000000
  0.333333  0.111111  0.111111     24.000000
  0.444444  0.111111  0.111111     24.000000
  0.222222  0.222222  0.111111     24.000000
  0.333333  0.222222  0.111111     48.000000
  0.444444  0.222222  0.111111     48.000000
  0.333333  0.333333  0.111111     24.000000
  0.444444  0.333333  0.111111     48.000000
  0.444444  0.444444  0.111111     24.000000
  0.222222  0.222222  0.222222      8.000000
  0.333333  0.222222  0.222222     24.000000
  0.444444  0.222222  0.222222     24.000000
  0.333333  0.333333  0.222222     24.000000
  0.444444  0.333333  0.222222     48.000000
  0.444444  0.444444  0.222222     24.000000
  0.333333  0.333333  0.333333      8.000000
  0.444444  0.333333  0.333333     24.000000
  0.444444  0.444444  0.333333     24.000000
  0.444444  0.444444  0.444444      8.000000

 Following cartesian coordinates:
            Coordinates               Weight
  0.000000  0.000000  0.000000      1.000000
  0.030779  0.000000  0.000000      6.000000
  0.061557  0.000000  0.000000      6.000000
  0.092336  0.000000  0.000000      6.000000
  0.123115  0.000000  0.000000      6.000000
  0.030779  0.030779  0.000000     12.000000
  0.061557  0.030779  0.000000     24.000000
  0.092336  0.030779  0.000000     24.000000
  0.123115  0.030779  0.000000     24.000000
  0.061557  0.061557  0.000000     12.000000
  0.092336  0.061557  0.000000     24.000000
  0.123115  0.061557  0.000000     24.000000
  0.092336  0.092336  0.000000     12.000000
  0.123115  0.092336  0.000000     24.000000
  0.123115  0.123115  0.000000     12.000000
  0.030779  0.030779  0.030779      8.000000
  0.061557  0.030779  0.030779     24.000000
  0.092336  0.030779  0.030779     24.000000
  0.123115  0.030779  0.030779     24.000000
  0.061557  0.061557  0.030779     24.000000
[...]
   0.06155740  0.06155740  0.00000000       0.016
   0.09233610  0.06155740  0.00000000       0.033
   0.12311480  0.06155740  0.00000000       0.033
   0.09233610  0.09233610  0.00000000       0.016
   0.12311480  0.09233610  0.00000000       0.033
   0.12311480  0.12311480  0.00000000       0.016
   0.03077870  0.03077870  0.03077870       0.011
   0.06155740  0.03077870  0.03077870       0.033
   0.09233610  0.03077870  0.03077870       0.033
   0.12311480  0.03077870  0.03077870       0.033
   0.06155740  0.06155740  0.03077870       0.033
   0.09233610  0.06155740  0.03077870       0.066
   0.12311480  0.06155740  0.03077870       0.066
   0.09233610  0.09233610  0.03077870       0.033
   0.12311480  0.09233610  0.03077870       0.066
   0.12311480  0.12311480  0.03077870       0.033
   0.06155740  0.06155740  0.06155740       0.011
   0.09233610  0.06155740  0.06155740       0.033
   0.12311480  0.06155740  0.06155740       0.033
   0.09233610  0.09233610  0.06155740       0.033
   0.12311480  0.09233610  0.06155740       0.066
   0.12311480  0.12311480  0.06155740       0.033
   0.09233610  0.09233610  0.09233610       0.011
   0.12311480  0.09233610  0.09233610       0.033
   0.12311480  0.12311480  0.09233610       0.033
   0.12311480  0.12311480  0.12311480       0.011

 k-points in reciprocal lattice and weights: KPOINTS created by Atomic Simulation Env
   0.00000000  0.00000000  0.00000000       0.001
   0.11111111  0.00000000  0.00000000       0.008
   0.22222222  0.00000000  0.00000000       0.008
   0.33333333  0.00000000  0.00000000       0.008
   0.44444444  0.00000000  0.00000000       0.008
   0.11111111  0.11111111  0.00000000       0.016
   0.22222222  0.11111111  0.00000000       0.033
   0.33333333  0.11111111  0.00000000       0.033
   0.44444444  0.11111111  0.00000000       0.033
   0.22222222  0.22222222  0.00000000       0.016
   0.33333333  0.22222222  0.00000000       0.033
   0.44444444  0.22222222  0.00000000       0.033
   0.33333333  0.33333333  0.00000000       0.016
   0.44444444  0.33333333  0.00000000       0.033
   0.44444444  0.44444444  0.00000000       0.016
   0.11111111  0.11111111  0.11111111       0.011
   0.22222222  0.11111111  0.11111111       0.033
   0.33333333  0.11111111  0.11111111       0.033
   0.44444444  0.11111111  0.11111111       0.033
   0.22222222  0.22222222  0.11111111       0.033
   0.33333333  0.22222222  0.11111111       0.066
   0.44444444  0.22222222  0.11111111       0.066
   0.33333333  0.33333333  0.11111111       0.033
   0.44444444  0.33333333  0.11111111       0.066
   0.44444444  0.44444444  0.11111111       0.033
   0.22222222  0.22222222  0.22222222       0.011
   0.33333333  0.22222222  0.22222222       0.033
   0.44444444  0.22222222  0.22222222       0.033
   0.33333333  0.33333333  0.22222222       0.033
   0.44444444  0.33333333  0.22222222       0.066
   0.44444444  0.44444444  0.22222222       0.033
   0.33333333  0.33333333  0.33333333       0.011
   0.44444444  0.33333333  0.33333333       0.033
   0.44444444  0.44444444  0.33333333       0.033
   0.44444444  0.44444444  0.44444444       0.011

 position of ions in fractional coordinates (direct lattice)
   0.00000000  0.00000000  0.00000000
   0.00000000  0.50000000  0.50000000
   0.50000000  0.00000000  0.50000000
   0.50000000  0.50000000  0.00000000

 position of ions in cartesian coordinates  (Angst):
   0.00000000  0.00000000  0.00000000
   0.00000000  1.80500000  1.80500000
   1.80500000  0.00000000  1.80500000
   1.80500000  1.80500000  0.00000000

 k-point  1 :   0.0000 0.0000 0.0000  plane waves:     847
 k-point  2 :   0.1111 0.0000 0.0000  plane waves:     843
 k-point  3 :   0.2222 0.0000 0.0000  plane waves:     852
 k-point  4 :   0.3333 0.0000 0.0000  plane waves:     852
 k-point  5 :   0.4444 0.0000 0.0000  plane waves:     856
 k-point  6 :   0.1111 0.1111 0.0000  plane waves:     855
 k-point  7 :   0.2222 0.1111 0.0000  plane waves:     846
 k-point  8 :   0.3333 0.1111 0.0000  plane waves:     845
 k-point  9 :   0.4444 0.1111 0.0000  plane waves:     847
 k-point 10 :   0.2222 0.2222 0.0000  plane waves:     858
 k-point 11 :   0.3333 0.2222 0.0000  plane waves:     858
 k-point 12 :   0.4444 0.2222 0.0000  plane waves:     850
 k-point 13 :   0.3333 0.3333 0.0000  plane waves:     848
 k-point 14 :   0.4444 0.3333 0.0000  plane waves:     857
 k-point 15 :   0.4444 0.4444 0.0000  plane waves:     860
 k-point 16 :   0.1111 0.1111 0.1111  plane waves:     847
 k-point 17 :   0.2222 0.1111 0.1111  plane waves:     848
 k-point 18 :   0.3333 0.1111 0.1111  plane waves:     852
 k-point 19 :   0.4444 0.1111 0.1111  plane waves:     850
 k-point 20 :   0.2222 0.2222 0.1111  plane waves:     851
 k-point 21 :   0.3333 0.2222 0.1111  plane waves:     856
 k-point 22 :   0.4444 0.2222 0.1111  plane waves:     853
 k-point 23 :   0.3333 0.3333 0.1111  plane waves:     852
 k-point 24 :   0.4444 0.3333 0.1111  plane waves:     854
 k-point 25 :   0.4444 0.4444 0.1111  plane waves:     857
 k-point 26 :   0.2222 0.2222 0.2222  plane waves:     847
 k-point 27 :   0.3333 0.2222 0.2222  plane waves:     857
 k-point 28 :   0.4444 0.2222 0.2222  plane waves:     861
 k-point 29 :   0.3333 0.3333 0.2222  plane waves:     858
 k-point 30 :   0.4444 0.3333 0.2222  plane waves:     857
 k-point 31 :   0.4444 0.4444 0.2222  plane waves:     855
 k-point 32 :   0.3333 0.3333 0.3333  plane waves:     856
 k-point 33 :   0.4444 0.3333 0.3333  plane waves:     866
 k-point 34 :   0.4444 0.4444 0.3333  plane waves:     869
 k-point 35 :   0.4444 0.4444 0.4444  plane waves:     870

 maximum and minimum number of plane-waves per node :       870      843

 maximum number of plane-waves:       870
 maximum index in each direction:
   IXMAX=    5   IYMAX=    5   IZMAX=    5
   IXMIN=   -6   IYMIN=   -6   IZMIN=   -6

 WARNING: aliasing errors must be expected set NGX to  24 to avoid them
 WARNING: aliasing errors must be expected set NGY to  24 to avoid them
 WARNING: aliasing errors must be expected set NGZ to  24 to avoid them
 aliasing errors are usually negligible using standard VASP settings
 and one can safely disregard these warnings

 serial   3D FFT for wavefunctions
 parallel 3D FFT for charge:
    minimum data exchange during FFTs selected (reduces bandwidth)

 Broyden mixing: mesh for mixing (old mesh)
   NGX = 11   NGY = 11   NGZ = 11
  (NGX  = 36   NGY  = 36   NGZ  = 36)
  gives a total of   1331 points

 initial charge density was supplied:
 charge density of overlapping atoms calculated
 number of electron      44.0000000 magnetization
 keeping initial charge density in first step

 Maximum index for augmentation-charges          277 (set IRDMAX)

 First call to EWALD:  gamma=   0.491
 Maximum number of real-space cells 3x 3x 3
 Maximum number of reciprocal cells 3x 3x 3

 FEWALD executed in parallel

----------------------------------------- Iteration    1(   1)  ---------------------------------------

 eigenvalue-minimisations  :  3912
 total energy-change (2. order) : 0.1561430E+03  (-0.1664472E+04)
 number of electron      44.0000000 magnetization
 augmentation part       44.0000000 magnetization

 Free energy of the ion-electron system (eV)
  alpha Z        PSCENC =       248.71993771
  Ewald energy   TEWEN  =     -4425.78708566
  -Hartree energ DENC   =     -1444.32473403
  -exchange      EXHF   =         0.00000000
  -V(xc)+E(xc)   XCENC  =       183.18686199
  PAW double counting   =      4912.82663951    -5336.19386850
  entropy T*S    EENTRO =         0.00286900
  eigenvalues    EBANDS =       453.88182986
  atomic energy  EATOM  =      5563.83056080
  Solvation  Ediel_sol  =         0.00000000
  free energy    TOTEN  =       156.14301068 eV

  energy without entropy =      156.14014168  energy(sigma->0) =      156.14205435

[...]

 eigenvalue-minimisations  :  3432
 total energy-change (2. order) :-0.1696002E+03  (-0.1539906E+03)
 number of electron      44.0000000 magnetization
 augmentation part       44.0000000 magnetization

[...]

 Broyden mixing:
  rms(total) = 0.15310E+01    rms(broyden)= 0.15307E+01
  rms(prec ) = 0.35966E+01
  weight for this iteration     100.00

[...]

 eigenvalues of (default mixing * dielectric matrix)
  average eigenvalue GAMMA=   0.6651
  0.6651

[...]

 eigenvalue-minimisations  :  4584
 total energy-change (2. order) : 0.6743895E-02  (-0.2185732E-02)
 number of electron      44.0000915 magnetization
 augmentation part       28.0346326 magnetization

 Broyden mixing:
  rms(total) = 0.46938E-02    rms(broyden)= 0.46725E-02
  rms(prec ) = 0.99239E-02
  weight for this iteration     100.00

 eigenvalues of (default mixing * dielectric matrix)
  average eigenvalue GAMMA=   1.5754
  0.6596  0.9427  2.6424  2.0570

[...]

----------------------------------------- Iteration    1(  10)  ---------------------------------------

 eigenvalue-minimisations  :  3456
 total energy-change (2. order) :-0.2975676E-04  (-0.1708242E-04)
 number of electron      44.0000915 magnetization
 augmentation part       28.0346326 magnetization

 Free energy of the ion-electron system (eV)
  alpha Z        PSCENC =       248.71993771
  Ewald energy   TEWEN  =     -4425.78708566
  -Hartree energ DENC   =     -1350.69865841
  -exchange      EXHF   =         0.00000000
  -V(xc)+E(xc)   XCENC  =       178.73804555
  PAW double counting   =      5274.17175092    -5705.82589401
  entropy T*S    EENTRO =        -0.00156821
  eigenvalues    EBANDS =       201.93523726
  atomic energy  EATOM  =      5563.83056080
  Solvation  Ediel_sol  =         0.00000000
  free energy    TOTEN  =       -14.91767404 eV

  energy without entropy =      -14.91610584  energy(sigma->0) =      -14.91715131

 average (electrostatic) potential at core
  the test charge radii are     0.9430
  (the norm of the test charge is              1.0000)
       1 -63.6562       2 -63.6562       3 -63.6562       4 -63.6562

 E-fermi :   7.6053     XC(G=0): -12.7504     alpha+bet :-13.4799

 k-point     1 :       0.0000    0.0000    0.0000
  band No.  band energies     occupation
      1      -1.7477      2.00000
      2       2.7363      2.00000
      3       2.7363      2.00000
      4       2.7363      2.00000
      5       3.1947      2.00000
      6       3.1947      2.00000
      7       3.1947      2.00000
      8       4.5982      2.00000
      9       4.5982      2.00000
     10       4.5982      2.00000
     11       5.4304      2.00000
     12       5.4304      2.00000
     13       5.9826      2.00000
     14       5.9826      2.00000
     15       5.9826      2.00000
     16       6.1386      2.00000
     17       6.1386      2.00000
     18       6.1386      2.00000
     19       6.1386      2.00000
     20       6.1386      2.00000
     21       6.1386      2.00000
     22       9.1305     -0.00000
     23       9.1305     -0.00000
     24       9.1305     -0.00000
     25      14.7792      0.00000
     26      14.7792      0.00000
     27      14.7792      0.00000
     28      20.7483      0.00000
     29      20.7483      0.00000
     30      20.7483      0.00000
     31      20.7483      0.00000
     32      20.7483      0.00000
     33      20.7483      0.00000
     34      25.2530      0.00000
     35      25.2530      0.00000
     36      25.2530      0.00000
     37      27.9618      0.00000
     38      27.9618      0.00000
     39      27.9618      0.00000
     40      30.2664      0.00000
     41      32.9384      0.00000
     42      32.9384      0.00000
     43      32.9384      0.00000
     44      35.4333      0.00000
     45      35.4333      0.00000
     46      35.4333      0.00000
     47      39.2056      0.00000
     48      44.0064      0.00000

[...]

 k-point    35 :       0.4444    0.4444    0.4444
  band No.  band energies     occupation
      1       2.4694      2.00000
      2       2.5913      2.00000
      3       2.5913      2.00000
      4       2.5913      2.00000
      5       4.5274      2.00000
      6       4.5274      2.00000
      7       4.5274      2.00000
      8       4.5811      2.00000
      9       4.5811      2.00000
     10       4.6041      2.00000
     11       4.6041      2.00000
     12       4.6041      2.00000
     13       5.5922      2.00000
     14       5.5922      2.00000
     15       5.5922      2.00000
     16       5.9628      2.00000
     17       5.9628      2.00000
     18       5.9996      2.00000
     19       5.9996      2.00000
     20       5.9996      2.00000
     21       6.1043      2.00000
     22       7.0464      2.00000
     23       7.0464      2.00000
     24       7.0464      2.00000
     25      11.5388      0.00000
     26      11.5388      0.00000
     27      11.5388      0.00000
     28      12.2120      0.00000
     29      27.8351      0.00000
     30      27.8351      0.00000
     31      27.8351      0.00000
     32      28.8437      0.00000
     33      28.8694      0.00000
     34      28.8694      0.00000
     35      28.8694      0.00000
     36      29.1502      0.00000
     37      29.1502      0.00000
     38      29.1502      0.00000
     39      29.7912      0.00000
     40      29.7912      0.00000
     41      32.9659      0.00000
     42      32.9659      0.00000
     43      33.7912      0.00000
     44      33.7912      0.00000
     45      33.7912      0.00000
     46      34.0352      0.00000
     47      34.0352      0.00000
     48      34.0352      0.00000

 soft charge-density along one line, spin component           1
         0         1         2         3         4         5         6         7         8         9
 total charge-density along one line

------------------------ aborting loop because EDIFF is reached ----------------------------------------

  FORCE on cell =-STRESS in cart. coord.  units (eV):
  Direction    XX          YY          ZZ          XY          YZ          ZX
  Alpha Z   248.71994   248.71994   248.71994
  Ewald   -1475.26301 -1475.26301 -1475.26301    -0.00000    -0.00000    -0.00000
  Hartree   450.29038   450.29038   450.29038    -0.00000    -0.00000    -0.00000
  E(xc)    -257.40039  -257.40039  -257.40039    -0.00000    -0.00000    -0.00000
  Local     379.37724   379.37724   379.37724    -0.00000     0.00000    -0.00000
  n-local   -77.92733   -86.62611   -88.12018     0.43324     2.67302     1.12092
  augment   379.40716   379.40716   379.40716     0.00000    -0.00000    -0.00000
  Kinetic   367.24340   358.68215   352.97056    -3.54038    -0.06675    -1.24180
  Fock        0.00000     0.00000     0.00000     0.00000     0.00000     0.00000
  Total       0.53882     0.53882     0.53882     0.00000     0.00000    -0.00000
  in kB      18.34985    18.34985    18.34985     0.00000     0.00000    -0.00000

 VOLUME and BASIS-vectors are now :
  energy-cutoff  :      400.00
  volume of cell :       47.05
      direct lattice vectors                 reciprocal lattice vectors
     3.610000000  0.000000000  0.000000000     0.277008310  0.000000000  0.000000000
     0.000000000  3.610000000  0.000000000     0.000000000  0.277008310  0.000000000
     0.000000000  0.000000000  3.610000000     0.000000000  0.000000000  0.277008310

  length of vectors
     3.610000000  3.610000000  3.610000000     0.277008310  0.277008310  0.277008310

 FORCES acting on ions
    electron-ion (+dipol)            ewald-force                    non-local-force                 convergence-correction
   -.291E-13 0.333E-13 -.157E-12   0.143E-13 0.308E-14 0.281E-14   0.331E-23 0.149E-22 0.132E-22   0.866E-13 0.479E-13 -.689E-13
   -.290E-13 0.868E-12 0.666E-12   0.138E-13 0.694E-14 0.654E-14   -.132E-22 0.132E-22 0.000E+00   0.813E-13 0.206E-13 0.767E-14
   0.810E-12 0.902E-14 -.988E-12   -.135E-13 -.861E-14 0.641E-14   -.199E-22 0.397E-22 0.132E-22   -.168E-13 0.595E-13 0.375E-13
   0.783E-12 0.818E-12 0.768E-12   -.140E-13 -.475E-14 -.124E-13   0.298E-22 -.232E-22 -.136E-22   0.393E-13 0.698E-13 -.658E-13
   0.153E-11 0.173E-11 0.290E-12   0.616E-15 -.334E-14 0.330E-14   0.000E+00 0.447E-22 0.128E-22   0.190E-12 0.198E-12 -.895E-13

 POSITION                                       TOTAL-FORCE (eV/Angst)
      0.00000      0.00000      0.00000        -0.000000     -0.000000     -0.000000
      0.00000      1.80500      1.80500         0.000000      0.000000     -0.000000
      1.80500      0.00000      1.80500         0.000000      0.000000      0.000000
      1.80500      1.80500      0.00000         0.000000     -0.000000     -0.000000
    total drift:                                0.000000      0.000000      0.000000

  FREE ENERGIE OF THE ION-ELECTRON SYSTEM (eV)
  free  energy   TOTEN  =       -14.91767404 eV

  energy  without entropy=      -14.91610584  energy(sigma->0) =      -14.91715131