 vasp.5.4.1 05Feb16 (build Feb 08 2018 09:21:51) complex

 executed on             LinuxIFC date 2019.11.21  23:19:09

 INCAR:
 POTCAR:    PAW_PBE Cu 22Jun2005

 POTCAR:    PAW_PBE Cu 22Jun2005
   VRHFIN =Cu: d10 p1

   TITEL  = PAW_PBE Cu 22Jun2005
   POMASS =   63.546; ZVAL   =   11.000    mass and valenz
   ENMAX  =  295.446; ENMIN  =  221.585 eV

  PAW_PBE Cu 22Jun2005                  :

 POSCAR: Cu
  positions in cartesian coordinates
 exchange correlation table for  LEXCH =        8
   RHO(1)=    0.500       N(1)  =     2000
   RHO(2)=  100.500       N(2)  =     4000

 ion  position               nearest neighbor table
   1  0.167  0.167  0.413-   3 2.57   3 2.57   4 2.57   4 2.57   2 2.57   2 2.57   8 2.57   5 2.57
                             6 2.57
   2  0.667  0.167  0.413-   4 2.57   3 2.57   4 2.57   3 2.57   1 2.57   1 2.57   7 2.57   6 2.57
                             5 2.57
   3  0.167  0.667  0.413-   1 2.57   1 2.57   2 2.57   2 2.57   4 2.57   4 2.57   6 2.57   7 2.57
                             8 2.57
   4  0.667  0.667  0.413-   2 2.57   1 2.57   2 2.57   1 2.57   3 2.57   3 2.57   5 2.57   8 2.57
                             7 2.57
   5  0.833  0.333  0.500-   7 2.57   7 2.57   8 2.57   8 2.57   6 2.57   6 2.57   4 2.57  11 2.57
                             1 2.57   9 2.57  12 2.57   2 2.57
   6  0.333  0.333  0.500-   8 2.57   7 2.57   8 2.57   7 2.57   5 2.57   5 2.57   3 2.57  12 2.57
                             2 2.57  11 2.57  10 2.57   1 2.57
   7  0.833  0.833  0.500-   5 2.57   5 2.57   6 2.57   6 2.57   8 2.57   8 2.57   2 2.57   9 2.57
                             3 2.57  10 2.57  11 2.57   4 2.57
   8  0.333  0.833  0.500-   6 2.57   5 2.57   6 2.57   5 2.57   7 2.57   7 2.57   1 2.57  10 2.57
                             4 2.57   9 2.57  12 2.57   3 2.57
   9  0.000  0.000  0.587-  11 2.57  11 2.57  12 2.57  12 2.57  10 2.57  10 2.57   7 2.57   5 2.57
                             8 2.57
  10  0.500  0.000  0.587-  12 2.57  11 2.57  12 2.57  11 2.57   9 2.57   9 2.57   8 2.57   7 2.57
                             6 2.57
  11  0.000  0.500  0.587-   9 2.57   9 2.57  10 2.57  10 2.57  12 2.57  12 2.57   5 2.57   6 2.57
                             7 2.57
  12  0.500  0.500  0.587-  10 2.57   9 2.57  10 2.57   9 2.57  11 2.57  11 2.57   6 2.57   5 2.57
                             8 2.57

  LATTYP: Found a hexagonal cell.
 ALAT       =     5.1420805128
 C/A-ratio  =     4.7059728251

  Lattice vectors:

 A1 = (   2.5710402564,  -4.4531723524,   0.0000000000)
 A2 = (  -5.1420805128,   0.0000000000,   0.0000000000)
 A3 = (   0.0000000000,   0.0000000000, -24.1984911575)

Analysis of symmetry for initial positions (statically):
 Subroutine PRICEL returns following result:

[...]

   4 primitive cells build up your supercell.

 Routine SETGRP: Setting up the symmetry group for a
 hexagonal supercell.

 Subroutine GETGRP returns: Found 12 space group operations
 (whereof  6 operations were pure point group operations)
 out of a pool of 24 trial point group operations.

The static configuration has the point symmetry C_3v.
 The point group associated with its full space group is D_3d.

Analysis of symmetry for dynamics (positions and initial velocities):
 Subroutine PRICEL returns following result:

  LATTYP: Found a hexagonal cell.
 ALAT       =     2.5710402564
 C/A-ratio  =     9.4119456502

  Lattice vectors:

 A1 = (   1.2855201282,  -2.2265861762,   0.0000000000)
 A2 = (  -2.5710402564,   0.0000000000,   0.0000000000)
 A3 = (   0.0000000000,   0.0000000000, -24.1984911575)

   4 primitive cells build up your supercell.

 Routine SETGRP: Setting up the symmetry group for a
 hexagonal supercell.

 Subroutine GETGRP returns: Found 12 space group operations
 (whereof  6 operations were pure point group operations)
 out of a pool of 24 trial point group operations.

The dynamic configuration has the point symmetry C_3v.
 The point group associated with its full space group is D_3d.

 Subroutine INISYM returns: Found 12 space group operations
 (whereof  6 operations are pure point group operations),
 and found     4 'primitive' translations

 KPOINTS: KPOINTS created by Atomic Simulation Env

Automatic generation of k-mesh.
Space group operators:
 irot       det(A)        alpha          n_x          n_y          n_z        tau_x        tau_y        tau_z
    1     1.000000     0.000000     1.000000     0.000000     0.000000     0.000000     0.000000     0.000000
    2     1.000000   120.000000     0.000000     0.000000     1.000000     0.000000     0.000000     0.000000
    3     1.000000   120.000000     0.000000     0.000000    -1.000000     0.000000     0.000000     0.000000
    4    -1.000000   179.999999     0.500000    -0.866025     0.000000     0.000000     0.000000     0.000000
    5    -1.000000   180.000000     1.000000     0.000000     0.000000     0.000000     0.000000     0.000000
    6    -1.000000   179.999999    -0.500000    -0.866025     0.000000     0.000000     0.000000     0.000000
    7    -1.000000     0.000000     1.000000     0.000000     0.000000     0.166667    -0.333333    -0.000000
    8    -1.000000   120.000000     0.000000     0.000000     1.000000     0.166667    -0.333333    -0.000000
    9    -1.000000   120.000000     0.000000     0.000000    -1.000000     0.166667    -0.333333    -0.000000
   10     1.000000   179.999999     0.500000    -0.866025     0.000000     0.166667    -0.333333    -0.000000
   11     1.000000   180.000000     1.000000     0.000000     0.000000     0.166667    -0.333333    -0.000000
   12     1.000000   179.999999    -0.500000    -0.866025     0.000000     0.166667    -0.333333    -0.000000

 Subroutine IBZKPT returns following result:

 Found     12 irreducible k-points:

 Following reciprocal coordinates:
            Coordinates               Weight
  0.000000  0.000000  0.000000      1.000000
  0.111111 -0.000000  0.000000      6.000000
  0.222222 -0.000000  0.000000      6.000000
  0.333333 -0.000000  0.000000      6.000000
  0.444444 -0.000000  0.000000      6.000000
  0.222222  0.111111  0.000000      6.000000
  0.333333  0.111111  0.000000     12.000000
  0.444444  0.111111  0.000000     12.000000
 -0.444444  0.111111  0.000000      6.000000
  0.444444  0.222222  0.000000      6.000000
 -0.444444  0.222222  0.000000     12.000000
 -0.333333  0.333333  0.000000      2.000000

 Following cartesian coordinates:
            Coordinates               Weight
  0.000000  0.000000  0.000000      1.000000
  0.021608 -0.012476  0.000000      6.000000
  0.043216 -0.024951  0.000000      6.000000
  0.064825 -0.037427  0.000000      6.000000
  0.086433 -0.049902  0.000000      6.000000
  0.043216 -0.000000  0.000000      6.000000
  0.064825 -0.012476  0.000000     12.000000
  0.086433 -0.024951  0.000000     12.000000
 -0.086433  0.074853  0.000000      6.000000
  0.086433  0.000000  0.000000      6.000000
 -0.086433  0.099804  0.000000     12.000000
 -0.064825  0.112280  0.000000      2.000000

 I would recommend the setting:
   dimension x,y,z NGX =    25 NGY =   25 NGZ =  118
 SYSTEM =  unknown system
 POSCAR =  Cu

 Startparameter for this run:
   NWRITE =      2    write-flag & timer
   PREC   = normal    normal or accurate (medium, high low for compatibility)
   ISTART =      0    job   : 0-new  1-cont  2-samecut
   ICHARG =      2    charge: 1-file 2-atom 10-const
   ISPIN  =      1    spin polarized calculation?
   LNONCOLLINEAR =      F non collinear calculations
   LSORBIT =      F    spin-orbit coupling
   INIWAV =      1    electr: 0-lowe 1-rand  2-diag
   LASPH  =      F    aspherical Exc in radial PAW
   METAGGA=      F    non-selfconsistent MetaGGA calc.

 Electronic Relaxation 1
   ENCUT  =  400.0 eV  29.40 Ry    5.42 a.u.   8.39  8.39 39.46*2*pi/ulx,y,z
   ENINI  =  400.0     initial cutoff
   ENAUG  =  587.0 eV  augmentation charge cutoff
   NELM   =     60;   NELMIN=  2; NELMDL= -5     # of ELM steps
   EDIFF  = 0.1E-03   stopping-criterion for ELM
   LREAL  =      F    real-space projection
   NLSPLINE    = F    spline interpolate recip. space projectors
   LCOMPAT=      F    compatible to vasp.4.4
   GGA_COMPAT  = T    GGA compatible to vasp.4.4-vasp.4.6
   LMAXPAW     = -100 max onsite density
   LMAXMIX     =    2 max onsite mixed and CHGCAR
   VOSKOWN=      0    Vosko Wilk Nusair interpolation
   ROPT   =    0.00000
 Ionic relaxation
   EDIFFG = 0.1E-02   stopping-criterion for IOM
   NSW    =     20    number of steps for IOM
   NBLOCK =      1;   KBLOCK =     20    inner block; outer block
   IBRION =      2    ionic relax: 0-MD 1-quasi-New 2-CG
   NFREE  =      1    steps in history (QN), initial steepest desc. (CG)
   ISIF   =      2    stress and relaxation
   IWAVPR =     11    prediction:  0-non 1-charg 2-wave 3-comb
   ISYM   =      2    0-nonsym 1-usesym 2-fastsym
   LCORR  =      T    Harris-Foulkes like correction to forces

   POTIM  = 0.5000    time-step for ionic-motion
   TEIN   =    0.0    initial temperature
   TEBEG  =    0.0;   TEEND  =   0.0 temperature during run
   SMASS  =  -3.00    Nose mass-parameter (am)
   estimated Nose-frequenzy (Omega)   =  0.10E-29 period in steps =****** mass=  -0.604E-27a.u.
   SCALEE = 1.0000    scale energy and forces
   NPACO  =    256;   APACO  = 16.0  distance and # of slots for P.C.
   PSTRESS=    0.0 pullay stress

  Mass of Ions in am
   POMASS =  63.55
  Ionic Valenz
   ZVAL   =  11.00
  Atomic Wigner-Seitz radii
  virtual crystal weights
   VCA    =   1.00
   NELECT =     132.0000    total number of electrons
   NUPDOWN=      -1.0000    fix difference up-down

 DOS related values:
   EMIN   =  10.00;   EMAX   =-10.00  energy-range for DOS
   EFERMI =   0.00
   ISMEAR =     1;   SIGMA  =   0.10  broadening in eV -4-tet -1-fermi 0-gaus

 Electronic relaxation 2 (details)
   IALGO  =     38    algorithm
   LDIAG  =      T    sub-space diagonalisation (order eigenvalues)
   LSUBROT=      F    optimize rotation matrix (better conditioning)
   TURBO    =      0    0=normal 1=particle mesh
   IRESTART =      0    0=no restart 2=restart with 2 vectors
   NREBOOT  =      0    no. of reboots
   NMIN     =      0    reboot dimension
   EREF     =   0.00    reference energy to select bands
   IMIX   =      4    mixing-type and parameters
     AMIX     =   0.40;   BMIX     =  1.00
     AMIX_MAG =   1.60;   BMIX_MAG =  1.00
     AMIN     =   0.10
     WC   =   100.;   INIMIX=   1;  MIXPRE=   1;  MAXMIX= -45

 Intra band minimization:
   WEIMIN = 0.0010     energy-eigenvalue tresh-hold
   EBREAK =  0.26E-06  absolut break condition
   DEPER  =   0.30     relativ break condition

   TIME   =   0.40     timestep for ELM

  volume/ion in A,a.u.               =      46.18       311.61
  Fermi-wavevector in a.u.,A,eV,Ry     =   1.014847  1.917783 14.012838  1.029915
  Thomas-Fermi vector in A             =   2.148098

 Write flags
   LWAVE  =      F    write WAVECAR
   LCHARG =      F    write CHGCAR
   LVTOT  =      F    write LOCPOT, total local potential
   LVHAR  =      F    write LOCPOT, Hartree potential only
   LELF   =      F    write electronic localiz. function (ELF)
   LORBIT =      0    0 simple, 1 ext, 2 COOP (PROOUT)

[...]
     44      -3.3308      2.00000
     45      -3.3308      2.00000
     46      -3.1712      2.00000
     47      -3.1712      2.00000
     48      -3.1712      2.00000
     49      -3.1307      2.00000
     50      -3.1307      2.00000
     51      -3.1307      2.00000
     52      -3.1131      2.00000
     53      -3.1131      2.00000
     54      -3.0641      2.00000
     55      -3.0641      2.00000
     56      -3.0641      2.00000
     57      -3.0331      2.00000
     58      -2.9004      2.00000
     59      -2.9004      2.00000
     60      -2.9004      2.00000
[...]
     82       4.0275      0.00000
     83       4.2749      0.00000
     84       4.7012      0.00000
     85       4.8287      0.00000
     86       4.8287      0.00000
     87       4.8287      0.00000
     88       6.4700      0.00000
     89       6.4891      0.00000
     90       7.4287      0.00000
     91       7.4287      0.00000
     92       7.4287      0.00000
     93       7.7260      0.00000
     94       7.7261      0.00000
     95       7.7261      0.00000
     96       8.9293      0.00000

[...]

 soft charge-density along one line, spin component           1
         0         1         2         3         4         5         6         7         8         9
 total charge-density along one line

------------------------ aborting loop because EDIFF is reached ----------------------------------------

  FORCE on cell =-STRESS in cart. coord.  units (eV):
  Direction    XX          YY          ZZ          XY          YZ          ZX
  Alpha Z   190.05445   190.05445   190.05445
  Ewald   74493.90564 74493.90564-83207.80085    -0.00000    -0.00000    -0.00000
  Hartree 78589.49997 78589.49997-75798.48059     0.00000    -0.00000    -0.00000
  E(xc)    -769.65790  -769.65772  -771.78675    -0.00015     0.00000     0.00000
  Local  ************************157633.85310     0.00604    -0.00002    -0.00003
  n-local  -258.25259  -273.28932  -271.88304    -7.32458     0.25981    -0.25879
  augment  1131.88760  1131.89429  1140.39522    -0.00579     0.00002     0.00004
  Kinetic  1069.74905  1071.29387  1082.81745     1.60456    -0.54330     0.88839
  Fock        0.00000     0.00000     0.00000     0.00000     0.00000     0.00000
  Total      -5.39777    -5.39777    -2.83101     0.00000     0.00000     0.00000
  in kB     -15.60732   -15.60732    -8.18569     0.00000     0.00000     0.00000

 VOLUME and BASIS-vectors are now :
  energy-cutoff  :      400.00
  volume of cell :      554.11
      direct lattice vectors                 reciprocal lattice vectors
     5.142080513  0.000000000  0.000000000     0.194473812 -0.112279508  0.000000000
     2.571040256  4.453172352  0.000000000     0.000000000  0.224559016  0.000000000
     0.000000000  0.000000000 24.198491158     0.000000000  0.000000000  0.041324891

[...]

 FORCES acting on ions
    electron-ion (+dipol)            ewald-force                    non-local-force                 convergence-correction
   0.893E-05 0.515E-05 0.282E+04   0.305E-11 0.175E-11 -.281E+04   0.130E-17 0.000E+00 -.197E+01   -.489E-09 -.282E-09 0.116E-01
   0.893E-05 0.515E-05 0.282E+04   0.306E-11 0.174E-11 -.281E+04   0.932E-17 0.520E-17 -.197E+01   -.489E-09 -.282E-09 0.116E-01
   0.893E-05 0.515E-05 0.282E+04   0.303E-11 0.173E-11 -.281E+04   0.000E+00 0.173E-17 -.197E+01   -.489E-09 -.282E-09 0.116E-01
   0.893E-05 0.515E-05 0.282E+04   0.304E-11 0.175E-11 -.281E+04   0.304E-17 -.104E-16 -.197E+01   -.489E-09 -.282E-09 0.116E-01
   -.900E-05 -.520E-05 -.105E-02   -.463E-11 -.255E-11 0.227E-12   0.212E-21 0.212E-21 0.169E-20   0.123E-09 0.712E-10 0.272E-04
   -.900E-05 -.520E-05 -.105E-02   -.462E-11 -.255E-11 0.227E-12   0.138E-20 -.212E-21 -.847E-21   0.123E-09 0.712E-10 0.272E-04
   -.900E-05 -.520E-05 -.105E-02   -.464E-11 -.256E-11 0.227E-12   -.741E-21 0.106E-20 0.847E-20   0.123E-09 0.712E-10 0.272E-04
   -.900E-05 -.520E-05 -.105E-02   -.463E-11 -.256E-11 0.000E+00   0.148E-20 -.148E-20 0.508E-20   0.123E-09 0.712E-10 0.272E-04
   0.183E-05 0.105E-05 -.282E+04   0.163E-11 0.806E-12 0.281E+04   0.000E+00 -.867E-18 0.197E+01   0.375E-09 0.216E-09 -.115E-01
   0.183E-05 0.105E-05 -.282E+04   0.165E-11 0.809E-12 0.281E+04   0.260E-17 0.564E-17 0.197E+01   0.375E-09 0.216E-09 -.115E-01
   0.183E-05 0.105E-05 -.282E+04   0.161E-11 0.797E-12 0.281E+04   0.195E-17 0.217E-17 0.197E+01   0.375E-09 0.216E-09 -.115E-01
   0.183E-05 0.105E-05 -.282E+04   0.163E-11 0.793E-12 0.281E+04   -.585E-17 -.173E-17 0.197E+01   0.375E-09 0.216E-09 -.115E-01
   0.702E-05 0.406E-05 -.123E-01   0.175E-12 -.409E-13 -.273E-11   0.124E-16 0.173E-17 0.222E-14   0.369E-10 0.217E-10 0.267E-03

 POSITION                                       TOTAL-FORCE (eV/Angst)
      1.28552      0.74220     10.00000         0.000000      0.000000      0.110220
      3.85656      0.74220     10.00000         0.000000     -0.000000      0.110220
      2.57104      2.96878     10.00000         0.000000      0.000000      0.110220
      5.14208      2.96878     10.00000         0.000000      0.000000      0.110220
      5.14208      1.48439     12.09925        -0.000000      0.000000      0.000000
      2.57104      1.48439     12.09925         0.000000      0.000000      0.000000
      6.42760      3.71098     12.09925        -0.000000      0.000000      0.000000
      3.85656      3.71098     12.09925        -0.000000      0.000000      0.000000
      0.00000      0.00000     14.19849        -0.000000     -0.000000     -0.110220
      2.57104      0.00000     14.19849        -0.000000     -0.000000     -0.110220
      1.28552      2.22659     14.19849        -0.000000     -0.000000     -0.110220
      3.85656      2.22659     14.19849        -0.000000      0.000000     -0.110220
    total drift:                                0.000007      0.000004     -0.012039

  FREE ENERGIE OF THE ION-ELECTRON SYSTEM (eV)
  free  energy   TOTEN  =       -40.93517736 eV

  energy  without entropy=      -40.91512573  energy(sigma->0) =      -40.92849348

[...]

 d Force = 0.4220659E-02[ 0.375E-02, 0.469E-02]  d Energy = 0.4357163E-02-0.137E-03
 d Force =-0.1197655E+03[-0.120E+03,-0.120E+03]  d Ewald  =-0.1197655E+03 0.117E-04

 Steepest descent step on ions:
 trial-energy change:   -0.004357  1 .order   -0.004221   -0.004689   -0.003753
  (g-gl).g = 0.469E-02      g.g   = 0.469E-02  gl.gl    = 0.000E+00
 g(Force)  = 0.469E-02   g(Stress)= 0.000E+00 ortho     = 0.000E+00
 gamma     =   0.00000
 trial     =   1.00000
 opt step  =   4.00000  (harmonic =   5.00997) maximal distance =0.02126922
 next E    =   -40.946922   (d E  =  -0.01174)

[...]

 d Force = 0.8629765E-02[ 0.600E-02, 0.113E-01]  d Energy = 0.8461253E-02 0.169E-03
 d Force =-0.3598816E+03[-0.360E+03,-0.359E+03]  d Ewald  =-0.3598819E+03 0.358E-03

[...]

 d Force =-0.2011718E-02[-0.160E-01, 0.120E-01]  d Energy =-0.2217606E-02 0.206E-03
 d Force =-0.7223819E+03[-0.724E+03,-0.721E+03]  d Ewald  =-0.7223847E+03 0.276E-02

 FEWALD executed in parallel

[...]

 eigenvalue-minimisations  :  3336
 total energy-change (2. order) :-0.2644225E-01  (-0.2818769E-01)
 number of electron     131.9999597 magnetization
 augmentation part       84.3675161 magnetization

[...]

 Broyden mixing:
  rms(total) = 0.40569E-02    rms(broyden)= 0.40562E-02
  rms(prec ) = 0.42091E-02
  weight for this iteration     100.00

 eigenvalues of (default mixing * dielectric matrix)
  average eigenvalue GAMMA=   1.0526
  2.4402  0.9256  0.9256  0.5724  0.3991

[...]

----------------------------------------- Iteration    5(   7)  ---------------------------------------

 eigenvalue-minimisations  :  1584
 total energy-change (2. order) : 0.2709467E-04  (-0.6442152E-05)
 number of electron     131.9999597 magnetization
 augmentation part       84.3173433 magnetization

 Free energy of the ion-electron system (eV)
  alpha Z        PSCENC =       190.05445386
  Ewald energy   TEWEN  =     66568.58751052
  -Hartree energ DENC   =    -82167.12504343
  -exchange      EXHF   =         0.00000000
  -V(xc)+E(xc)   XCENC  =       533.65388023
  PAW double counting   =     15591.46422006   -16882.10450164
  entropy T*S    EENTRO =        -0.01768123
  eigenvalues    EBANDS =      -566.95488685
  atomic energy  EATOM  =     16691.49168240
  Solvation  Ediel_sol  =         0.00000000
  free energy    TOTEN  =       -40.95036609 eV

  energy without entropy =      -40.93268486  energy(sigma->0) =      -40.94447234

 average (electrostatic) potential at core
  the test charge radii are     0.9430
  (the norm of the test charge is              1.0000)
       1 -72.5352       2 -72.5352       3 -72.5352       4 -72.5352       5 -72.7479
       6 -72.7479       7 -72.7479       8 -72.7479       9 -72.5357      10 -72.5357
      11 -72.5357      12 -72.5357

 E-fermi :  -1.5061     XC(G=0):  -4.0544     alpha+bet : -3.4335

[...]

 k-point    12 :      -0.3333    0.3333    0.0000
  band No.  band energies     occupation
      1      -7.7022      2.00000
      2      -7.7022      2.00000
      3      -7.7021      2.00000
      4      -6.1942      2.00000
      5      -6.1942      2.00000
      6      -6.1942      2.00000
      7      -5.3748      2.00000
      8      -5.3035      2.00000
      9      -5.3033      2.00000
     10      -5.2927      2.00000
     11      -5.2927      2.00000
     12      -5.2927      2.00000
     13      -5.1080      2.00000
     14      -5.1079      2.00000
     15      -5.0595      2.00000
     16      -5.0595      2.00000
     17      -5.0595      2.00000
     18      -4.8122      2.00000
     19      -4.8122      2.00000
     20      -4.8122      2.00000
     21      -4.6646      2.00000
     22      -4.6646      2.00000
     23      -4.6646      2.00000
     24      -4.5386      2.00000
     25      -4.5291      2.00000
     26      -4.5291      2.00000
     27      -4.5291      2.00000
     28      -4.4834      2.00000
     29      -4.4834      2.00000
     30      -4.4834      2.00000
     31      -4.2668      2.00000
     32      -4.2664      2.00000
     33      -4.2273      2.00000
     34      -4.1988      2.00000
     35      -4.0696      2.00000
     36      -4.0696      2.00000
     37      -4.0696      2.00000
     38      -4.0507      2.00000
     39      -4.0507      2.00000
     40      -4.0507      2.00000
     41      -3.7920      2.00000
     42      -3.7920      2.00000
     43      -3.7920      2.00000
     44      -3.6227      2.00000
     45      -3.6225      2.00000
     46      -3.5850      2.00000
     47      -3.5850      2.00000
     48      -3.5850      2.00000
     49      -3.5149      2.00000
     50      -3.5149      2.00000
     51      -3.5149      2.00000
     52      -3.2684      2.00000
     53      -3.2684      2.00000
     54      -3.2684      2.00000
     55      -3.2147      2.00000
     56      -3.2144      2.00000
     57      -3.1703      2.00000
     58      -3.1703      2.00000
     59      -3.1703      2.00000
     60      -3.1615      2.00000
[...]
     82       5.6080      0.00000
     83       5.6080      0.00000
     84       5.6080      0.00000
     85       5.8145      0.00000
     86       5.8145      0.00000
     87       5.8145      0.00000
     88       6.5059      0.00000
     89       6.5062      0.00000
     90       6.8927      0.00000
     91       6.8927      0.00000
     92       6.8927      0.00000
     93       7.0723      0.00000
     94       7.0723      0.00000
     95       7.0723      0.00000
     96       7.7565      0.00000

 soft charge-density along one line, spin component           1
         0         1         2         3         4         5         6         7         8         9
 total charge-density along one line

------------------------ aborting loop because EDIFF is reached ----------------------------------------

  FORCE on cell =-STRESS in cart. coord.  units (eV):
  Direction    XX          YY          ZZ          XY          YZ          ZX
  Alpha Z   190.05445   190.05445   190.05445
  Ewald   75295.23815 75295.23815-84021.89959    -0.00000    -0.00000    -0.00000
  Hartree 79382.99377 79382.99377-76600.13658     0.00000    -0.00000    -0.00000
  E(xc)    -769.93400  -769.93381  -772.02162    -0.00017     0.00000     0.00000
  Local  ************************159249.75948     0.00608    -0.00002    -0.00003
  n-local  -256.75037  -271.28213  -269.58176    -7.04034     0.30139    -0.28805
  augment  1132.35618  1132.36285  1139.65380    -0.00578     0.00008     0.00013
  Kinetic  1070.74823  1072.87436  1083.18000     1.96973    -0.59840     1.02880
  Fock        0.00000     0.00000     0.00000     0.00000     0.00000     0.00000
  Total      -4.56646    -4.56646    -0.99181     0.00000     0.00000     0.00000
  in kB     -13.20364   -13.20364    -2.86776     0.00000     0.00000     0.00000

 VOLUME and BASIS-vectors are now :
  energy-cutoff  :      400.00
  volume of cell :      554.11
      direct lattice vectors                 reciprocal lattice vectors
     5.142080513  0.000000000  0.000000000     0.194473812 -0.112279508  0.000000000
     2.571040256  4.453172352  0.000000000     0.000000000  0.224559016  0.000000000
     0.000000000  0.000000000 24.198491158     0.000000000  0.000000000  0.041324891

  length of vectors
     5.142080513  5.142080513 24.198491158     0.224559016  0.224559016  0.041324891

 FORCES acting on ions
    electron-ion (+dipol)            ewald-force                    non-local-force                 convergence-correction
   0.263E-05 0.152E-05 0.283E+04   0.329E-11 0.188E-11 -.283E+04   -.173E-17 -.304E-17 -.215E+01   -.214E-07 -.123E-07 0.136E+00
   0.263E-05 0.152E-05 0.283E+04   0.331E-11 0.188E-11 -.283E+04   -.217E-17 -.139E-16 -.215E+01   -.214E-07 -.123E-07 0.136E+00
   0.263E-05 0.152E-05 0.283E+04   0.327E-11 0.187E-11 -.283E+04   0.477E-17 -.104E-16 -.215E+01   -.214E-07 -.123E-07 0.136E+00
   0.263E-05 0.152E-05 0.283E+04   0.329E-11 0.188E-11 -.283E+04   -.347E-17 0.390E-17 -.215E+01   -.214E-07 -.123E-07 0.136E+00
   -.812E-05 -.469E-05 -.163E-02   -.500E-11 -.289E-11 -.341E-12   0.296E-20 0.424E-21 -.220E-19   0.158E-09 0.915E-10 0.742E-04
   -.812E-05 -.469E-05 -.163E-02   -.499E-11 -.289E-11 -.341E-12   -.328E-20 -.424E-21 0.847E-20   0.158E-09 0.911E-10 0.742E-04
   -.812E-05 -.469E-05 -.163E-02   -.501E-11 -.292E-11 -.512E-12   -.244E-20 -.127E-20 -.593E-19   0.158E-09 0.913E-10 0.742E-04
   -.812E-05 -.469E-05 -.163E-02   -.499E-11 -.290E-11 -.512E-12   0.212E-20 0.212E-20 0.457E-19   0.158E-09 0.910E-10 0.742E-04
   0.358E-05 0.207E-05 -.283E+04   0.175E-11 0.102E-11 0.283E+04   -.867E-18 0.434E-17 0.215E+01   0.220E-07 0.127E-07 -.135E+00
   0.358E-05 0.207E-05 -.283E+04   0.176E-11 0.102E-11 0.283E+04   0.434E-18 -.911E-17 0.215E+01   0.220E-07 0.127E-07 -.135E+00
   0.358E-05 0.207E-05 -.283E+04   0.173E-11 0.101E-11 0.283E+04   0.564E-17 0.434E-18 0.215E+01   0.220E-07 0.127E-07 -.135E+00
   0.358E-05 0.207E-05 -.283E+04   0.175E-11 0.101E-11 0.283E+04   0.737E-17 0.781E-17 0.215E+01   0.220E-07 0.127E-07 -.135E+00
   -.761E-05 -.439E-05 -.113E-01   0.158E-12 -.304E-13 0.182E-11   0.997E-17 -.199E-16 -.400E-14   0.333E-08 0.192E-08 0.814E-03

 POSITION                                       TOTAL-FORCE (eV/Angst)
      1.28552      0.74220     10.03493         0.000000     -0.000000      0.004316
      3.85656      0.74220     10.03493        -0.000000     -0.000000      0.004316
      2.57104      2.96878     10.03493        -0.000000     -0.000000      0.004316
      5.14208      2.96878     10.03493        -0.000000     -0.000000      0.004316
      5.14208      1.48439     12.09925        -0.000000      0.000000     -0.000000
      2.57104      1.48439     12.09925         0.000000     -0.000000     -0.000000
      6.42760      3.71098     12.09925        -0.000000     -0.000000     -0.000000
      3.85656      3.71098     12.09925         0.000000      0.000000     -0.000000
     -0.00000     -0.00000     14.16356         0.000000     -0.000000     -0.004316
      2.57104     -0.00000     14.16356         0.000000      0.000000     -0.004316
      1.28552      2.22659     14.16356        -0.000000      0.000000     -0.004316
      3.85656      2.22659     14.16356         0.000000      0.000000     -0.004316
    total drift:                               -0.000008     -0.000004     -0.010478

  FREE ENERGIE OF THE ION-ELECTRON SYSTEM (eV)
  free  energy   TOTEN  =       -40.95036609 eV

  energy  without entropy=      -40.93268486  energy(sigma->0) =      -40.94447234

 d Force = 0.4266703E-02[-0.630E-03, 0.916E-02]  d Energy = 0.4587917E-02-0.321E-03
 d Force = 0.4134664E+03[ 0.413E+03, 0.414E+03]  d Ewald  = 0.4134669E+03-0.526E-03

 reached required accuracy - stopping structural energy minimisation