 vasp.5.4.1 05Feb16 (build Feb 08 2018 09:21:51) complex

 executed on             LinuxIFC date 2019.11.20  21:33:08

 INCAR:
 POTCAR:    PAW_PBE Pd 04Jan2005

 POTCAR:    PAW_PBE Pd 04Jan2005
   VRHFIN =Pd : s1 d9

   TITEL  = PAW_PBE Pd 04Jan2005
   POMASS =  106.420; ZVAL   =   10.000    mass and valenz
   ENMAX  =  250.925; ENMIN  =  188.194 eV

  PAW_PBE Pd 04Jan2005                  :

 POSCAR: Pd
  positions in cartesian coordinates
 exchange correlation table for  LEXCH =        8
   RHO(1)=    0.500       N(1)  =     2000
   RHO(2)=  100.500       N(2)  =     4000

 ion  position               nearest neighbor table
   1  0.000  0.000  0.000-   2 2.84   3 2.84   4 2.84   2 2.84   3 2.84   2 2.84   4 2.84   2 2.84
                             3 2.84   4 2.84   3 2.84   4 2.84
   2  0.000  0.500  0.500-   1 2.84   3 2.84   4 2.84   1 2.84   4 2.84   1 2.84   3 2.84   1 2.84
                             3 2.84   4 2.84   4 2.84   3 2.84
   3  0.500  0.000  0.500-   1 2.84   2 2.84   4 2.84   1 2.84   4 2.84   2 2.84   4 2.84   4 2.84
                             1 2.84   2 2.84   1 2.84   2 2.84
   4  0.500  0.500  0.000-   1 2.84   2 2.84   3 2.84   2 2.84   3 2.84   1 2.84   3 2.84   3 2.84
                             1 2.84   2 2.84   2 2.84   1 2.84

  LATTYP: Found a simple cubic cell.
 ALAT       =     4.0196666667

  Lattice vectors:

 A1 = (   4.0196666667,   0.0000000000,   0.0000000000)
 A2 = (   0.0000000000,   4.0196666667,   0.0000000000)
 A3 = (   0.0000000000,   0.0000000000,   4.0196666667)

Analysis of symmetry for initial positions (statically):
 Subroutine PRICEL returns following result:

  LATTYP: Found a face centered cubic cell.
 ALAT       =     4.0196666667

[...]

   4 primitive cells build up your supercell.

 Routine SETGRP: Setting up the symmetry group for a
 simple cubic supercell.

 Subroutine GETGRP returns: Found 48 space group operations
 (whereof 48 operations were pure point group operations)
 out of a pool of 48 trial point group operations.

The static configuration has the point symmetry O_h .

Analysis of symmetry for dynamics (positions and initial velocities):
 Subroutine PRICEL returns following result:

  LATTYP: Found a face centered cubic cell.
 ALAT       =     4.0196666667

  Lattice vectors:

 A1 = (   2.0098333333,   2.0098333333,   0.0000000000)
 A2 = (   2.0098333333,   0.0000000000,  -2.0098333333)
 A3 = (   0.0000000000,   2.0098333333,  -2.0098333333)

   4 primitive cells build up your supercell.

 Routine SETGRP: Setting up the symmetry group for a
 simple cubic supercell.

 Subroutine GETGRP returns: Found 48 space group operations
 (whereof 48 operations were pure point group operations)
 out of a pool of 48 trial point group operations.

The dynamic configuration has the point symmetry O_h .

 Subroutine INISYM returns: Found 48 space group operations
 (whereof 48 operations are pure point group operations),
 and found     4 'primitive' translations

 KPOINTS: KPOINTS created by Atomic Simulation Env

Automatic generation of k-mesh.
Space group operators:
 irot       det(A)        alpha          n_x          n_y          n_z        tau_x        tau_y        tau_z
    1     1.000000     0.000001     1.000000     0.000000     0.000000     0.000000     0.000000     0.000000
    2    -1.000000     0.000001     1.000000     0.000000     0.000000     0.000000     0.000000     0.000000
    3     1.000000   120.000000    -0.577350    -0.577350    -0.577350     0.000000     0.000000     0.000000
    4    -1.000000   120.000000    -0.577350    -0.577350    -0.577350     0.000000     0.000000     0.000000
    5     1.000000   120.000000     0.577350     0.577350     0.577350     0.000000     0.000000     0.000000
    6    -1.000000   120.000000     0.577350     0.577350     0.577350     0.000000     0.000000     0.000000
    7     1.000000    90.000000     0.000000     0.000000    -1.000000     0.000000     0.000000     0.000000
    8    -1.000000    90.000000     0.000000     0.000000    -1.000000     0.000000     0.000000     0.000000
    9     1.000000   180.000000     0.000000     0.707107     0.707107     0.000000     0.000000     0.000000
   10    -1.000000   180.000000     0.000000     0.707107     0.707107     0.000000     0.000000     0.000000
   11     1.000000    90.000000     0.000000     1.000000     0.000000     0.000000     0.000000     0.000000
   12    -1.000000    90.000000     0.000000     1.000000     0.000000     0.000000     0.000000     0.000000
   13     1.000000   180.000000     0.000000     0.000000     1.000000     0.000000     0.000000     0.000000
   14    -1.000000   180.000000     0.000000     0.000000     1.000000     0.000000     0.000000     0.000000
   15     1.000000   120.000000    -0.577350     0.577350     0.577350     0.000000     0.000000     0.000000
   16    -1.000000   120.000000    -0.577350     0.577350     0.577350     0.000000     0.000000     0.000000
   17     1.000000   120.000000    -0.577350     0.577350    -0.577350     0.000000     0.000000     0.000000
   18    -1.000000   120.000000    -0.577350     0.577350    -0.577350     0.000000     0.000000     0.000000
   19     1.000000    90.000000     0.000000     0.000000     1.000000     0.000000     0.000000     0.000000
   20    -1.000000    90.000000     0.000000     0.000000     1.000000     0.000000     0.000000     0.000000
   21     1.000000    90.000000    -1.000000     0.000000     0.000000     0.000000     0.000000     0.000000
   22    -1.000000    90.000000    -1.000000     0.000000     0.000000     0.000000     0.000000     0.000000
   23     1.000000   180.000000     0.707107     0.000000     0.707107     0.000000     0.000000     0.000000
   24    -1.000000   180.000000     0.707107     0.000000     0.707107     0.000000     0.000000     0.000000
   25     1.000000   120.000000     0.577350    -0.577350     0.577350     0.000000     0.000000     0.000000
   26    -1.000000   120.000000     0.577350    -0.577350     0.577350     0.000000     0.000000     0.000000
   27     1.000000   120.000000    -0.577350    -0.577350     0.577350     0.000000     0.000000     0.000000
   28    -1.000000   120.000000    -0.577350    -0.577350     0.577350     0.000000     0.000000     0.000000
   29     1.000000   180.000000     1.000000     0.000000     0.000000     0.000000     0.000000     0.000000
   30    -1.000000   180.000000     1.000000     0.000000     0.000000     0.000000     0.000000     0.000000
   31     1.000000    90.000000     0.000000    -1.000000     0.000000     0.000000     0.000000     0.000000
   32    -1.000000    90.000000     0.000000    -1.000000     0.000000     0.000000     0.000000     0.000000
   33     1.000000   180.000000     0.707107     0.707107     0.000000     0.000000     0.000000     0.000000
   34    -1.000000   180.000000     0.707107     0.707107     0.000000     0.000000     0.000000     0.000000
   35     1.000000    90.000000     1.000000     0.000000     0.000000     0.000000     0.000000     0.000000
   36    -1.000000    90.000000     1.000000     0.000000     0.000000     0.000000     0.000000     0.000000
   37     1.000000   120.000000     0.577350    -0.577350    -0.577350     0.000000     0.000000     0.000000
   38    -1.000000   120.000000     0.577350    -0.577350    -0.577350     0.000000     0.000000     0.000000
   39     1.000000   180.000000     0.000000     1.000000     0.000000     0.000000     0.000000     0.000000
   40    -1.000000   180.000000     0.000000     1.000000     0.000000     0.000000     0.000000     0.000000
   41     1.000000   120.000000     0.577350     0.577350    -0.577350     0.000000     0.000000     0.000000
   42    -1.000000   120.000000     0.577350     0.577350    -0.577350     0.000000     0.000000     0.000000
   43     1.000000   180.000000     0.000000    -0.707107     0.707107     0.000000     0.000000     0.000000
   44    -1.000000   180.000000     0.000000    -0.707107     0.707107     0.000000     0.000000     0.000000
   45     1.000000   180.000000     0.707107    -0.707107     0.000000     0.000000     0.000000     0.000000
   46    -1.000000   180.000000     0.707107    -0.707107     0.000000     0.000000     0.000000     0.000000
   47     1.000000   180.000000     0.707107     0.000000    -0.707107     0.000000     0.000000     0.000000
   48    -1.000000   180.000000     0.707107     0.000000    -0.707107     0.000000     0.000000     0.000000

 Subroutine IBZKPT returns following result:

 Found     20 irreducible k-points:

 Following reciprocal coordinates:
            Coordinates               Weight
  0.062500  0.062500  0.062500      8.000000
  0.187500  0.062500  0.062500     24.000000
  0.312500  0.062500  0.062500     24.000000
  0.437500  0.062500  0.062500     24.000000
  0.187500  0.187500  0.062500     24.000000
  0.312500  0.187500  0.062500     48.000000
  0.437500  0.187500  0.062500     48.000000
  0.312500  0.312500  0.062500     24.000000
  0.437500  0.312500  0.062500     48.000000
  0.437500  0.437500  0.062500     24.000000
  0.187500  0.187500  0.187500      8.000000
  0.312500  0.187500  0.187500     24.000000
  0.437500  0.187500  0.187500     24.000000
  0.312500  0.312500  0.187500     24.000000
  0.437500  0.312500  0.187500     48.000000
  0.437500  0.437500  0.187500     24.000000
  0.312500  0.312500  0.312500      8.000000
  0.437500  0.312500  0.312500     24.000000
  0.437500  0.437500  0.312500     24.000000
  0.437500  0.437500  0.437500      8.000000

 Following cartesian coordinates:
            Coordinates               Weight
  0.015549  0.015549  0.015549      8.000000
  0.046646  0.015549  0.015549     24.000000
  0.077743  0.015549  0.015549     24.000000
  0.108840  0.015549  0.015549     24.000000
  0.046646  0.046646  0.015549     24.000000
  0.077743  0.046646  0.015549     48.000000
  0.108840  0.046646  0.015549     48.000000
  0.077743  0.077743  0.015549     24.000000
  0.108840  0.077743  0.015549     48.000000
  0.108840  0.108840  0.015549     24.000000
  0.046646  0.046646  0.046646      8.000000
  0.077743  0.046646  0.046646     24.000000
  0.108840  0.046646  0.046646     24.000000
  0.077743  0.077743  0.046646     24.000000
  0.108840  0.077743  0.046646     48.000000
  0.108840  0.108840  0.046646     24.000000
  0.077743  0.077743  0.077743      8.000000
  0.108840  0.077743  0.077743     24.000000
  0.108840  0.108840  0.077743     24.000000
  0.108840  0.108840  0.108840      8.000000

 I would recommend the setting:
   dimension x,y,z NGX =    20 NGY =   20 NGZ =   20
 SYSTEM =  unknown system
 POSCAR =  Pd

 Startparameter for this run:
   NWRITE =      2    write-flag & timer
   PREC   = normal    normal or accurate (medium, high low for compatibility)
   ISTART =      0    job   : 0-new  1-cont  2-samecut
   ICHARG =      2    charge: 1-file 2-atom 10-const
   ISPIN  =      1    spin polarized calculation?
   LNONCOLLINEAR =      F non collinear calculations
   LSORBIT =      F    spin-orbit coupling
   INIWAV =      1    electr: 0-lowe 1-rand  2-diag
   LASPH  =      F    aspherical Exc in radial PAW
[...]
     AMIX     =   0.40;   BMIX     =  1.00
     AMIX_MAG =   1.60;   BMIX_MAG =  1.00
     AMIN     =   0.10
     WC   =   100.;   INIMIX=   1;  MIXPRE=   1;  MAXMIX= -45

 Intra band minimization:
   WEIMIN = 0.0000     energy-eigenvalue tresh-hold
   EBREAK =  0.10E-05  absolut break condition
   DEPER  =   0.30     relativ break condition

   TIME   =   0.40     timestep for ELM

  volume/ion in A,a.u.               =      16.24       109.57
  Fermi-wavevector in a.u.,A,eV,Ry     =   1.392851  2.632108 26.395779  1.940035
  Thomas-Fermi vector in A             =   2.516554

 Write flags
   LWAVE  =      F    write WAVECAR
   LCHARG =      F    write CHGCAR
   LVTOT  =      F    write LOCPOT, total local potential
   LVHAR  =      F    write LOCPOT, Hartree potential only
   LELF   =      F    write electronic localiz. function (ELF)
   LORBIT =      0    0 simple, 1 ext, 2 COOP (PROOUT)

 Dipole corrections
   LMONO  =      F    monopole corrections only (constant potential shift)
   LDIPOL =      F    correct potential (dipole corrections)
   IDIPOL =      0    1-x, 2-y, 3-z, 4-all directions
   EPSILON=  1.0000000 bulk dielectric constant

 Exchange correlation treatment:
   GGA     =    --    GGA type
   VOSKOWN=      0    Vosko Wilk Nusair interpolation
   LHFCALC =     F    Hartree Fock is set to
   LHFONE  =     F    Hartree Fock one center treatment
   AEXX    =    0.0000 exact exchange contribution

 Linear response parameters
   LEPSILON=     F    determine dielectric tensor
   LRPA    =     F    only Hartree local field effects (RPA)
   LNABLA  =     F    use nabla operator in PAW spheres
   LVEL    =     F    velocity operator in full k-point grid
   LINTERFAST=   F  fast interpolation
   KINTER  =     0    interpolate to denser k-point grid
   CSHIFT  =0.1000    complex shift for real part using Kramers Kronig
   OMEGAMAX=  -1.0    maximum frequency
   DEG_THRESHOLD= 0.2000000E-02 threshold for treating states as degnerate
   RTIME   =    0.100 relaxation time in fs

 Orbital magnetization related:
   ORBITALMAG=     F  switch on orbital magnetization
   LCHIMAG   =     F  perturbation theory with respect to B field
   DQ        =  0.001000  dq finite difference perturbation B field

 Static calculation
 charge density and potential will be updated during run
 non-spin polarized calculation
 Variant of blocked Davidson
 Davidson routine will perform the subspace rotation
 perform sub-space diagonalisation
    after iterative eigenvector-optimisation
 modified Broyden-mixing scheme, WC =      100.0
 initial mixing is a Kerker type mixing with AMIX =  0.4000 and BMIX =      1.0000
 Hartree-type preconditioning will be used
 using additional bands            4
 reciprocal scheme for non local part
 use partial core corrections
 calculate Harris-corrections to forces
   (improved forces if not selfconsistent)
 use gradient corrections
 use of overlap-Matrix (Vanderbilt PP)
 Methfessel and Paxton  Order N= 1 SIGMA  =   0.10

  energy-cutoff  :      400.00
  volume of cell :       64.95
      direct lattice vectors                 reciprocal lattice vectors
     4.019666667  0.000000000  0.000000000     0.248776847  0.000000000  0.000000000
     0.000000000  4.019666667  0.000000000     0.000000000  0.248776847  0.000000000
     0.000000000  0.000000000  4.019666667     0.000000000  0.000000000  0.248776847

  length of vectors
     4.019666667  4.019666667  4.019666667     0.248776847  0.248776847  0.248776847

 k-points in units of 2pi/SCALE and weight: KPOINTS created by Atomic Simulation Env
   0.01554855  0.01554855  0.01554855       0.016
   0.04664566  0.01554855  0.01554855       0.047
   0.07774276  0.01554855  0.01554855       0.047
   0.10883987  0.01554855  0.01554855       0.047
   0.04664566  0.04664566  0.01554855       0.047
   0.07774276  0.04664566  0.01554855       0.094
   0.10883987  0.04664566  0.01554855       0.094
   0.07774276  0.07774276  0.01554855       0.047
   0.10883987  0.07774276  0.01554855       0.094
   0.10883987  0.10883987  0.01554855       0.047
   0.04664566  0.04664566  0.04664566       0.016
   0.07774276  0.04664566  0.04664566       0.047
   0.10883987  0.04664566  0.04664566       0.047
   0.07774276  0.07774276  0.04664566       0.047
   0.10883987  0.07774276  0.04664566       0.094
   0.10883987  0.10883987  0.04664566       0.047
   0.07774276  0.07774276  0.07774276       0.016
   0.10883987  0.07774276  0.07774276       0.047
   0.10883987  0.10883987  0.07774276       0.047
   0.10883987  0.10883987  0.10883987       0.016

 k-points in reciprocal lattice and weights: KPOINTS created by Atomic Simulation Env
   0.06250000  0.06250000  0.06250000       0.016
   0.18750000  0.06250000  0.06250000       0.047
   0.31250000  0.06250000  0.06250000       0.047
   0.43750000  0.06250000  0.06250000       0.047
   0.18750000  0.18750000  0.06250000       0.047
   0.31250000  0.18750000  0.06250000       0.094
   0.43750000  0.18750000  0.06250000       0.094
   0.31250000  0.31250000  0.06250000       0.047
   0.43750000  0.31250000  0.06250000       0.094
   0.43750000  0.43750000  0.06250000       0.047
   0.18750000  0.18750000  0.18750000       0.016
   0.31250000  0.18750000  0.18750000       0.047
   0.43750000  0.18750000  0.18750000       0.047
   0.31250000  0.31250000  0.18750000       0.047
   0.43750000  0.31250000  0.18750000       0.094
   0.43750000  0.43750000  0.18750000       0.047
   0.31250000  0.31250000  0.31250000       0.016
   0.43750000  0.31250000  0.31250000       0.047
   0.43750000  0.43750000  0.31250000       0.047
   0.43750000  0.43750000  0.43750000       0.016

 position of ions in fractional coordinates (direct lattice)
   0.00000000  0.00000000  0.00000000
   0.00000000  0.50000000  0.50000000
   0.50000000  0.00000000  0.50000000
   0.50000000  0.50000000  0.00000000

 position of ions in cartesian coordinates  (Angst):
   0.00000000  0.00000000  0.00000000
   0.00000000  2.00983333  2.00983333
   2.00983333  0.00000000  2.00983333
   2.00983333  2.00983333  0.00000000

 k-point  1 :   0.0625 0.0625 0.0625  plane waves:    1192
 k-point  2 :   0.1875 0.0625 0.0625  plane waves:    1188
 k-point  3 :   0.3125 0.0625 0.0625  plane waves:    1186
 k-point  4 :   0.4375 0.0625 0.0625  plane waves:    1184
 k-point  5 :   0.1875 0.1875 0.0625  plane waves:    1186
 k-point  6 :   0.3125 0.1875 0.0625  plane waves:    1183
 k-point  7 :   0.4375 0.1875 0.0625  plane waves:    1180
 k-point  8 :   0.3125 0.3125 0.0625  plane waves:    1184
 k-point  9 :   0.4375 0.3125 0.0625  plane waves:    1175
 k-point 10 :   0.4375 0.4375 0.0625  plane waves:    1180
 k-point 11 :   0.1875 0.1875 0.1875  plane waves:    1186
 k-point 12 :   0.3125 0.1875 0.1875  plane waves:    1179
 k-point 13 :   0.4375 0.1875 0.1875  plane waves:    1172
 k-point 14 :   0.3125 0.3125 0.1875  plane waves:    1177
 k-point 15 :   0.4375 0.3125 0.1875  plane waves:    1181
 k-point 16 :   0.4375 0.4375 0.1875  plane waves:    1177
 k-point 17 :   0.3125 0.3125 0.3125  plane waves:    1178
 k-point 18 :   0.4375 0.3125 0.3125  plane waves:    1176
 k-point 19 :   0.4375 0.4375 0.3125  plane waves:    1165
 k-point 20 :   0.4375 0.4375 0.4375  plane waves:    1163

 maximum and minimum number of plane-waves per node :      1192     1163

 maximum number of plane-waves:      1192
 maximum index in each direction:
   IXMAX=    6   IYMAX=    6   IZMAX=    6
   IXMIN=   -6   IYMIN=   -6   IZMIN=   -6

 WARNING: aliasing errors must be expected set NGX to  26 to avoid them
 WARNING: aliasing errors must be expected set NGY to  26 to avoid them
 WARNING: aliasing errors must be expected set NGZ to  26 to avoid them
 aliasing errors are usually negligible using standard VASP settings
 and one can safely disregard these warnings

 serial   3D FFT for wavefunctions
 parallel 3D FFT for charge:
    minimum data exchange during FFTs selected (reduces bandwidth)

 Broyden mixing: mesh for mixing (old mesh)
   NGX = 13   NGY = 13   NGZ = 13
  (NGX  = 40   NGY  = 40   NGZ  = 40)
  gives a total of   2197 points

 initial charge density was supplied:
 charge density of overlapping atoms calculated
 number of electron      40.0000000 magnetization
 keeping initial charge density in first step

 Maximum index for augmentation-charges          385 (set IRDMAX)

 First call to EWALD:  gamma=   0.441
 Maximum number of real-space cells 3x 3x 3
 Maximum number of reciprocal cells 3x 3x 3

 FEWALD executed in parallel

----------------------------------------- Iteration    1(   1)  ---------------------------------------

 eigenvalue-minimisations  :   960
 total energy-change (2. order) : 0.1434957E+03  (-0.1835532E+04)
 number of electron      40.0000000 magnetization
 augmentation part       40.0000000 magnetization

 Free energy of the ion-electron system (eV)
  alpha Z        PSCENC =       160.55816665
  Ewald energy   TEWEN  =     -3284.90117375
  -Hartree energ DENC   =      -534.94156288
  -exchange      EXHF   =         0.00000000
  -V(xc)+E(xc)   XCENC  =      -117.70346828
  PAW double counting   =      3226.95325816    -2978.06409795
  entropy T*S    EENTRO =         0.00118322
  eigenvalues    EBANDS =       432.61779525
  atomic energy  EATOM  =      3238.97557032
  Solvation  Ediel_sol  =         0.00000000
  free energy    TOTEN  =       143.49567072 eV

  energy without entropy =      143.49448750  energy(sigma->0) =      143.49527632

[...]

 eigenvalue-minimisations  :  1536
 total energy-change (2. order) :-0.1643530E+03  (-0.1640677E+03)
 number of electron      40.0000000 magnetization
 augmentation part       40.0000000 magnetization

[...]

 Broyden mixing:
  rms(total) = 0.11780E+01    rms(broyden)= 0.11779E+01
  rms(prec ) = 0.18729E+01
  weight for this iteration     100.00

[...]

 eigenvalues of (default mixing * dielectric matrix)
  average eigenvalue GAMMA=   1.3693
  1.3693

[...]

 eigenvalue-minimisations  :  1008
 total energy-change (2. order) : 0.9035717E-02  (-0.3266013E-03)
 number of electron      40.0000154 magnetization
 augmentation part       16.8298312 magnetization

 Broyden mixing:
  rms(total) = 0.38536E-02    rms(broyden)= 0.38483E-02
  rms(prec ) = 0.53871E-02
  weight for this iteration     100.00

 eigenvalues of (default mixing * dielectric matrix)
  average eigenvalue GAMMA=   1.4999
  2.4903  0.9821  1.0272

[...]

----------------------------------------- Iteration    1(   9)  ---------------------------------------

 eigenvalue-minimisations  :   576
 total energy-change (2. order) :-0.2419643E-04  (-0.2615262E-05)
 number of electron      40.0000154 magnetization
 augmentation part       16.8298312 magnetization

 Free energy of the ion-electron system (eV)
  alpha Z        PSCENC =       160.55816665
  Ewald energy   TEWEN  =     -3284.90117375
  -Hartree energ DENC   =      -497.45471139
  -exchange      EXHF   =         0.00000000
  -V(xc)+E(xc)   XCENC  =      -118.81295410
  PAW double counting   =      3705.58674113    -3465.26871370
  entropy T*S    EENTRO =        -0.00545105
  eigenvalues    EBANDS =       240.56802796
  atomic energy  EATOM  =      3238.97557032
  Solvation  Ediel_sol  =         0.00000000
  free energy    TOTEN  =       -20.75449794 eV

  energy without entropy =      -20.74904689  energy(sigma->0) =      -20.75268093

 average (electrostatic) potential at core
  the test charge radii are     1.1199
  (the norm of the test charge is              1.0000)
       1 -71.7749       2 -71.7749       3 -71.7749       4 -71.7749

 E-fermi :   8.2417     XC(G=0): -12.5911     alpha+bet :-15.1656

 k-point     1 :       0.0625    0.0625    0.0625
  band No.  band energies     occupation
      1       1.9555      2.00000
      2       3.6968      2.00000
      3       3.6968      2.00000
      4       3.6968      2.00000
      5       3.9367      2.00000
      6       3.9367      2.00000
      7       3.9367      2.00000
      8       5.7803      2.00000
      9       5.8652      2.00000
     10       5.8652      2.00000
     11       7.1802      2.00000
     12       7.1802      2.00000
     13       8.1161      2.07063
     14       8.1161      2.07063
     15       8.1161      2.07063
     16       8.2063      1.55954
     17       8.2063      1.55954
     18       8.2063      1.55954
     19       8.4400     -0.01686
     20       8.4400     -0.01686
     21       8.4400     -0.01686
     22      11.6990      0.00000
     23      11.6990      0.00000
     24      11.6990      0.00000

[...]

 k-point    20 :       0.4375    0.4375    0.4375
  band No.  band energies     occupation
      1       3.6837      2.00000
      2       3.7494      2.00000
      3       3.7494      2.00000
      4       3.7494      2.00000
      5       5.7258      2.00000
      6       5.7258      2.00000
      7       5.7258      2.00000
      8       5.8165      2.00000
      9       5.8165      2.00000
     10       5.8649      2.00000
     11       5.8649      2.00000
     12       5.8649      2.00000
     13       7.7068      2.00000
     14       7.7068      2.00000
     15       7.7068      2.00000
     16       8.1410      2.05161
     17       8.1410      2.05161
     18       8.2290      1.21366
     19       8.2290      1.21366
     20       8.2290      1.21366
     21       8.8481     -0.00000
     22       9.9794     -0.00000
     23       9.9794     -0.00000
     24       9.9794     -0.00000

 soft charge-density along one line, spin component           1
         0         1         2         3         4         5         6         7         8         9
 total charge-density along one line

------------------------ aborting loop because EDIFF is reached ----------------------------------------

  FORCE on cell =-STRESS in cart. coord.  units (eV):
  Direction    XX          YY          ZZ          XY          YZ          ZX
  Alpha Z   160.55817   160.55817   160.55817
  Ewald   -1094.96754 -1094.96754 -1094.96754     0.00000     0.00000    -0.00000
  Hartree   165.83756   165.83756   165.83756    -0.00000    -0.00000    -0.00000
  E(xc)    -208.95157  -208.95157  -208.95157    -0.00000    -0.00000     0.00000
  Local     154.26252   154.26252   154.26252    -0.00000     0.00000    -0.00000
  n-local   -19.67823   -27.56449   -16.72120     8.91389     5.82419     5.77389
  augment   297.32328   297.32328   297.32328     0.00000     0.00000     0.00000
  Kinetic   549.47041   540.49657   540.90459     4.20370    -0.10328     1.94775
  Fock        0.00000     0.00000     0.00000     0.00000     0.00000     0.00000
  Total      -3.63503    -3.63503    -3.63503    -0.00000     0.00000    -0.00000
  in kB     -89.67036   -89.67036   -89.67036    -0.00000     0.00000    -0.00000

 VOLUME and BASIS-vectors are now :
  energy-cutoff  :      400.00
  volume of cell :       64.95
      direct lattice vectors                 reciprocal lattice vectors
     4.019666667  0.000000000  0.000000000     0.248776847  0.000000000  0.000000000
     0.000000000  4.019666667  0.000000000     0.000000000  0.248776847  0.000000000
     0.000000000  0.000000000  4.019666667     0.000000000  0.000000000  0.248776847

  length of vectors
     4.019666667  4.019666667  4.019666667     0.248776847  0.248776847  0.248776847

 FORCES acting on ions
    electron-ion (+dipol)            ewald-force                    non-local-force                 convergence-correction
   0.112E-13 0.376E-13 0.464E-14   -.127E-13 -.665E-14 -.102E-13   0.424E-23 0.662E-23 0.331E-23   -.191E-13 -.572E-14 0.141E-13
   0.110E-13 -.627E-13 -.990E-13   -.132E-13 0.758E-14 0.411E-14   0.165E-23 0.136E-22 0.290E-23   -.237E-13 0.209E-13 -.178E-13
   -.890E-13 0.420E-13 0.583E-12   0.117E-13 -.912E-14 0.395E-14   -.579E-23 -.662E-23 0.414E-24   0.318E-13 -.428E-14 -.413E-13
   -.891E-13 -.314E-13 -.487E-12   0.112E-13 0.512E-14 0.317E-14   0.662E-23 -.331E-23 -.414E-23   0.346E-13 0.321E-13 0.414E-13
   -.156E-12 -.145E-13 0.159E-14   -.304E-14 -.308E-14 0.106E-14   0.672E-23 0.103E-22 0.248E-23   0.236E-13 0.430E-13 -.361E-14

 POSITION                                       TOTAL-FORCE (eV/Angst)
      0.00000      0.00000      0.00000         0.000000      0.000000     -0.000000
      0.00000      2.00983      2.00983         0.000000     -0.000000      0.000000
      2.00983      0.00000      2.00983        -0.000000      0.000000      0.000000
      2.00983      2.00983      0.00000        -0.000000      0.000000      0.000000
    total drift:                               -0.000000      0.000000     -0.000000

  FREE ENERGIE OF THE ION-ELECTRON SYSTEM (eV)
  free  energy   TOTEN  =       -20.75449794 eV

  energy  without entropy=      -20.74904689  energy(sigma->0) =      -20.75268093