 vasp.5.4.1 05Feb16 (build Feb 08 2018 09:21:51) complex

 executed on             LinuxIFC date 2019.11.21  23:49:39

 INCAR:
 POTCAR:    PAW_PBE Au 04Oct2007
 POTCAR:    PAW_PBE O 08Apr2002

 POTCAR:    PAW_PBE Au 04Oct2007
   VRHFIN =Au: s1d10

   TITEL  = PAW_PBE Au 04Oct2007
   POMASS =  196.966; ZVAL   =   11.000    mass and valenz
   ENMAX  =  229.943; ENMIN  =  172.457 eV

 POTCAR:    PAW_PBE O 08Apr2002
   VRHFIN =O: s2p4

   TITEL  = PAW_PBE O 08Apr2002
   POMASS =   16.000; ZVAL   =    6.000    mass and valenz
   ENMAX  =  400.000; ENMIN  =  300.000 eV

  PAW_PBE Au 04Oct2007                  :
  PAW_PBE O 08Apr2002                   :

 POSCAR: Au  O
  positions in cartesian coordinates
 exchange correlation table for  LEXCH =        8
   RHO(1)=    0.500       N(1)  =     2000
   RHO(2)=  100.500       N(2)  =     4000

 ion  position               nearest neighbor table
   1  0.167  0.167  0.404-   5 2.91   6 2.91   8 2.91   2 2.94   2 2.94   4 2.94   4 2.94   3 2.94
                             3 2.94
   2  0.667  0.166  0.402-   3 2.93   4 2.93   1 2.94   1 2.94   3 2.95   4 2.95   6 2.96   5 2.96
                             7 3.02
   3  0.166  0.667  0.402-   4 2.93   2 2.93   1 2.94   1 2.94   4 2.95   2 2.95   8 2.96   6 2.96
                             7 3.02
   4  0.667  0.667  0.402-   3 2.93   2 2.93   1 2.94   1 2.94   3 2.95   2 2.95   8 2.96   5 2.96
                             7 3.02
   5  0.837  0.332  0.499-  12 2.82   6 2.91   8 2.91   1 2.91   7 2.94   7 2.94   2 2.96   4 2.96
                             6 2.97   8 2.97  11 3.05   9 3.05
   6  0.332  0.332  0.499-  12 2.82   5 2.91   8 2.91   1 2.91   7 2.94   7 2.94   2 2.96   3 2.96
                             5 2.97   8 2.97  11 3.05  10 3.05
   7  0.833  0.833  0.503-  10 2.90  11 2.90   9 2.90   8 2.94   5 2.94   6 2.94   6 2.94   8 2.94
                             5 2.94   4 3.02   3 3.02   2 3.02
   8  0.332  0.837  0.499-  12 2.82   5 2.91   6 2.91   1 2.91   7 2.94   7 2.94   4 2.96   3 2.96
                             5 2.97   6 2.97  10 3.05   9 3.05
   9  0.989  0.989  0.600-  13 2.11  10 2.75  11 2.75   7 2.90  12 2.95  12 2.95   8 3.05   5 3.05
                            10 3.13  11 3.13
  10  0.521  0.989  0.600-  13 2.11   9 2.75  11 2.75   7 2.90  12 2.95  12 2.95   8 3.05   6 3.05
                             9 3.13  11 3.13
  11  0.989  0.521  0.600-  13 2.11  10 2.75   9 2.75   7 2.90  12 2.95  12 2.95   5 3.05   6 3.05
                            10 3.13   9 3.13
  12  0.500  0.500  0.590-   6 2.82   5 2.82   8 2.82  11 2.95  11 2.95   9 2.95   9 2.95  10 2.95
                            10 2.95
  13  0.167  0.167  0.645-  10 2.11  11 2.11   9 2.11

  LATTYP: Found a hexagonal cell.
 ALAT       =     5.8802999934
 C/A-ratio  =     4.2176835991

  Lattice vectors:

 A1 = (   2.9401499900,  -5.0924891800,   0.0000000000)
 A2 = (  -5.8802999900,   0.0000000000,   0.0000000000)
 A3 = (   0.0000000000,   0.0000000000, -24.8012448400)

Analysis of symmetry for initial positions (statically):
 Subroutine PRICEL returns:
 Original cell was already a primitive cell.

 Routine SETGRP: Setting up the symmetry group for a
 hexagonal supercell.

 Subroutine GETGRP returns: Found  6 space group operations
 (whereof  2 operations were pure point group operations)
 out of a pool of 24 trial point group operations.

The static configuration has the point symmetry C_1h.
 The point group associated with its full space group is C_3v.

Analysis of symmetry for dynamics (positions and initial velocities):
 Subroutine PRICEL returns:
 Original cell was already a primitive cell.

 Routine SETGRP: Setting up the symmetry group for a
 hexagonal supercell.

 Subroutine GETGRP returns: Found  6 space group operations
 (whereof  2 operations were pure point group operations)
 out of a pool of 24 trial point group operations.

The dynamic configuration has the point symmetry C_1h.
 The point group associated with its full space group is C_3v.

 Subroutine INISYM returns: Found  6 space group operations
 (whereof  2 operations are pure point group operations),
 and found     1 'primitive' translations

 KPOINTS: KPOINTS created by Atomic Simulation Env

Automatic generation of k-mesh.
Space group operators:
 irot       det(A)        alpha          n_x          n_y          n_z        tau_x        tau_y        tau_z
    1     1.000000     0.000000     1.000000     0.000000     0.000000     0.000000     0.000000     0.000000
    2    -1.000000   180.000000     0.500000    -0.866025     0.000000     0.000000     0.000000     0.000000
    3     1.000000   120.000000     0.000000     0.000000     1.000000     0.000000    -0.500000     0.000000
    4     1.000000   120.000000     0.000000     0.000000    -1.000000    -0.500000     0.000000     0.000000
    5    -1.000000   180.000000     1.000000    -0.000000     0.000000    -0.500000     0.000000     0.000000
    6    -1.000000   180.000000    -0.500000    -0.866025     0.000000     0.000000    -0.500000     0.000000

 Subroutine IBZKPT returns following result:

 Found     12 irreducible k-points:

 Following reciprocal coordinates:
            Coordinates               Weight
  0.000000  0.000000  0.000000      1.000000
  0.111111  0.000000  0.000000      6.000000
  0.222222  0.000000  0.000000      6.000000
  0.333333  0.000000  0.000000      6.000000
  0.444444  0.000000  0.000000      6.000000
  0.222222  0.111111  0.000000      6.000000
  0.333333  0.111111  0.000000     12.000000
  0.444444  0.111111  0.000000     12.000000
 -0.444444  0.111111  0.000000      6.000000
  0.444444  0.222222  0.000000      6.000000
 -0.444444  0.222222  0.000000     12.000000
 -0.333333  0.333333  0.000000      2.000000

 Following cartesian coordinates:
            Coordinates               Weight
  0.000000  0.000000  0.000000      1.000000
  0.018895 -0.010909  0.000000      6.000000
  0.037791 -0.021819  0.000000      6.000000
  0.056686 -0.032728  0.000000      6.000000
  0.075582 -0.043637  0.000000      6.000000
  0.037791 -0.000000  0.000000      6.000000
  0.056686 -0.010909  0.000000     12.000000
  0.075582 -0.021819  0.000000     12.000000
 -0.075582  0.065456  0.000000      6.000000
  0.075582 -0.000000  0.000000      6.000000
 -0.075582  0.087274  0.000000     12.000000
 -0.056686  0.098184  0.000000      2.000000

 I would recommend the setting:
   dimension x,y,z NGX =    29 NGY =   29 NGZ =  121
 SYSTEM =  unknown system
 POSCAR =  Au  O

 Startparameter for this run:
   NWRITE =      2    write-flag & timer
   PREC   = normal    normal or accurate (medium, high low for compatibility)
   ISTART =      0    job   : 0-new  1-cont  2-samecut
   ICHARG =      2    charge: 1-file 2-atom 10-const
   ISPIN  =      1    spin polarized calculation?
   LNONCOLLINEAR =      F non collinear calculations
   LSORBIT =      F    spin-orbit coupling
   INIWAV =      1    electr: 0-lowe 1-rand  2-diag
   LASPH  =      F    aspherical Exc in radial PAW
   METAGGA=      F    non-selfconsistent MetaGGA calc.

 Electronic Relaxation 1
   ENCUT  =  400.0 eV  29.40 Ry    5.42 a.u.   9.59  9.59 40.44*2*pi/ulx,y,z
   ENINI  =  400.0     initial cutoff
   ENAUG  =  605.4 eV  augmentation charge cutoff
   NELM   =     60;   NELMIN=  2; NELMDL= -5     # of ELM steps
   EDIFF  = 0.1E-03   stopping-criterion for ELM
   LREAL  =      F    real-space projection
   NLSPLINE    = F    spline interpolate recip. space projectors
   LCOMPAT=      F    compatible to vasp.4.4
   GGA_COMPAT  = T    GGA compatible to vasp.4.4-vasp.4.6
   LMAXPAW     = -100 max onsite density
   LMAXMIX     =    2 max onsite mixed and CHGCAR
   VOSKOWN=      0    Vosko Wilk Nusair interpolation
   ROPT   =    0.00000   0.00000
 Ionic relaxation
   EDIFFG = 0.1E-02   stopping-criterion for IOM
   NSW    =      0    number of steps for IOM
   NBLOCK =      1;   KBLOCK =      1    inner block; outer block
   IBRION =     -1    ionic relax: 0-MD 1-quasi-New 2-CG
   NFREE  =      0    steps in history (QN), initial steepest desc. (CG)
   ISIF   =      2    stress and relaxation
   IWAVPR =     10    prediction:  0-non 1-charg 2-wave 3-comb
   ISYM   =      2    0-nonsym 1-usesym 2-fastsym
   LCORR  =      T    Harris-Foulkes like correction to forces

   POTIM  = 0.5000    time-step for ionic-motion
   TEIN   =    0.0    initial temperature
   TEBEG  =    0.0;   TEEND  =   0.0 temperature during run
   SMASS  =  -3.00    Nose mass-parameter (am)
   estimated Nose-frequenzy (Omega)   =  0.10E-29 period in steps =****** mass=  -0.790E-27a.u.
   SCALEE = 1.0000    scale energy and forces
   NPACO  =    256;   APACO  = 16.0  distance and # of slots for P.C.
   PSTRESS=    0.0 pullay stress

  Mass of Ions in am
   POMASS = 196.97 16.00
  Ionic Valenz
   ZVAL   =  11.00  6.00
  Atomic Wigner-Seitz radii
  virtual crystal weights
   VCA    =   1.00  1.00
   NELECT =     138.0000    total number of electrons
   NUPDOWN=      -1.0000    fix difference up-down

 DOS related values:
   EMIN   =  10.00;   EMAX   =-10.00  energy-range for DOS
   EFERMI =   0.00
   ISMEAR =     1;   SIGMA  =   0.10  broadening in eV -4-tet -1-fermi 0-gaus

 Electronic relaxation 2 (details)
   IALGO  =     38    algorithm
   LDIAG  =      T    sub-space diagonalisation (order eigenvalues)
   LSUBROT=      F    optimize rotation matrix (better conditioning)
   TURBO    =      0    0=normal 1=particle mesh
   IRESTART =      0    0=no restart 2=restart with 2 vectors
   NREBOOT  =      0    no. of reboots
   NMIN     =      0    reboot dimension
   EREF     =   0.00    reference energy to select bands
   IMIX   =      4    mixing-type and parameters
     AMIX     =   0.40;   BMIX     =  1.00
     AMIX_MAG =   1.60;   BMIX_MAG =  1.00
     AMIN     =   0.10
     WC   =   100.;   INIMIX=   1;  MIXPRE=   1;  MAXMIX= -45

 Intra band minimization:
   WEIMIN = 0.0000     energy-eigenvalue tresh-hold
   EBREAK =  0.26E-06  absolut break condition
   DEPER  =   0.30     relativ break condition

   TIME   =   0.40     timestep for ELM

  volume/ion in A,a.u.               =      57.13       385.53
  Fermi-wavevector in a.u.,A,eV,Ry     =   0.934186  1.765356 11.873860  0.872704
  Thomas-Fermi vector in A             =   2.060965

 Write flags
   LWAVE  =      F    write WAVECAR
   LCHARG =      F    write CHGCAR
   LVTOT  =      F    write LOCPOT, total local potential
   LVHAR  =      F    write LOCPOT, Hartree potential only
   LELF   =      F    write electronic localiz. function (ELF)
   LORBIT =     10    0 simple, 1 ext, 2 COOP (PROOUT)

 Dipole corrections
   LMONO  =      F    monopole corrections only (constant potential shift)
   LDIPOL =      F    correct potential (dipole corrections)
   IDIPOL =      0    1-x, 2-y, 3-z, 4-all directions
   EPSILON=  1.0000000 bulk dielectric constant

 Exchange correlation treatment:
   GGA     =    --    GGA type
   VOSKOWN=      0    Vosko Wilk Nusair interpolation
   LHFCALC =     F    Hartree Fock is set to
   LHFONE  =     F    Hartree Fock one center treatment
   AEXX    =    0.0000 exact exchange contribution

 Linear response parameters
   LEPSILON=     F    determine dielectric tensor
[...]
 k-point  7 :   0.3333 0.1111 0.0000  plane waves:   13506
 k-point  8 :   0.4444 0.1111 0.0000  plane waves:   13477
 k-point  9 :  -0.4444 0.1111 0.0000  plane waves:   13452
 k-point 10 :   0.4444 0.2222 0.0000  plane waves:   13492
 k-point 11 :  -0.4444 0.2222 0.0000  plane waves:   13483
 k-point 12 :  -0.3333 0.3333 0.0000  plane waves:   13470

 maximum and minimum number of plane-waves per node :     13569    13452

 maximum number of plane-waves:     13569
 maximum index in each direction:
   IXMAX=   10   IYMAX=    9   IZMAX=   40
   IXMIN=  -10   IYMIN=   -9   IZMIN=  -40

 WARNING: aliasing errors must be expected set NGX to  42 to avoid them
 WARNING: aliasing errors must be expected set NGY to  38 to avoid them
 WARNING: aliasing errors must be expected set NGZ to 162 to avoid them
 aliasing errors are usually negligible using standard VASP settings
 and one can safely disregard these warnings

 serial   3D FFT for wavefunctions
 parallel 3D FFT for charge:
    minimum data exchange during FFTs selected (reduces bandwidth)

 Broyden mixing: mesh for mixing (old mesh)
   NGX = 19   NGY = 19   NGZ = 81
  (NGX  = 60   NGY  = 60   NGZ  =252)
  gives a total of  29241 points

 initial charge density was supplied:
 charge density of overlapping atoms calculated
 number of electron     138.0000000 magnetization
 keeping initial charge density in first step

 Maximum index for augmentation-charges          714 (set IRDMAX)

 First call to EWALD:  gamma=   0.196
 Maximum number of real-space cells 5x 5x 1
 Maximum number of reciprocal cells 2x 2x 7

 FEWALD executed in parallel

----------------------------------------- Iteration    1(   1)  ---------------------------------------

 eigenvalue-minimisations  :  2304
 total energy-change (2. order) : 0.8136061E+03  (-0.5081175E+04)
 number of electron     138.0000000 magnetization
 augmentation part      138.0000000 magnetization

 Free energy of the ion-electron system (eV)
  alpha Z        PSCENC =       240.41329892
  Ewald energy   TEWEN  =     48299.88778067
  -Hartree energ DENC   =    -60028.25454268
  -exchange      EXHF   =         0.00000000
  -V(xc)+E(xc)   XCENC  =       210.04320895
  PAW double counting   =     10835.71951712   -10560.46976544
  entropy T*S    EENTRO =         0.00430296
  eigenvalues    EBANDS =       271.03286717
  atomic energy  EATOM  =     11545.22942124
  Solvation  Ediel_sol  =         0.00000000
  free energy    TOTEN  =       813.60608892 eV

  energy without entropy =      813.60178595  energy(sigma->0) =      813.60465459

[...]

 eigenvalue-minimisations  :  3048
 total energy-change (2. order) :-0.8176710E+03  (-0.7700650E+03)
 number of electron     138.0000000 magnetization
 augmentation part      138.0000000 magnetization

[...]

 Broyden mixing:
  rms(total) = 0.27691E+01    rms(broyden)= 0.27690E+01
  rms(prec ) = 0.28286E+01
  weight for this iteration     100.00

[...]

 eigenvalues of (default mixing * dielectric matrix)
  average eigenvalue GAMMA=   0.8008
  0.8008

[...]

 eigenvalue-minimisations  :  2712
 total energy-change (2. order) : 0.6428068E-03  (-0.1499059E-02)
 number of electron     138.0000056 magnetization
 augmentation part       48.9004201 magnetization

[...]

 Broyden mixing:
  rms(total) = 0.47103E-03    rms(broyden)= 0.46731E-03
  rms(prec ) = 0.60012E-03
  weight for this iteration     100.00

 eigenvalues of (default mixing * dielectric matrix)
  average eigenvalue GAMMA=   1.5450
  4.8888  2.5239  2.5239  1.7215  1.4975  1.4975  0.4101  1.0589  0.8984  0.8984
  0.6097  0.7780  0.7780

[...]

----------------------------------------- Iteration    1(  19)  ---------------------------------------

 eigenvalue-minimisations  :  1800
 total energy-change (2. order) :-0.8545313E-04  (-0.9136464E-06)
 number of electron     138.0000056 magnetization
 augmentation part       48.8973239 magnetization

 Free energy of the ion-electron system (eV)
  alpha Z        PSCENC =       240.41329892
  Ewald energy   TEWEN  =     48299.88778067
  -Hartree energ DENC   =    -59855.05387658
  -exchange      EXHF   =         0.00000000
  -V(xc)+E(xc)   XCENC  =       205.01849015
  PAW double counting   =     12562.32501488   -12314.40144113
  entropy T*S    EENTRO =        -0.00474688
  eigenvalues    EBANDS =      -724.37409484
  atomic energy  EATOM  =     11545.22942124
  Solvation  Ediel_sol  =         0.00000000
  free energy    TOTEN  =       -40.96015358 eV

  energy without entropy =      -40.95540670  energy(sigma->0) =      -40.95857128

 average (electrostatic) potential at core
  the test charge radii are     1.2098  0.7215
  (the norm of the test charge is              1.0000)
       1 -74.4666       2 -74.3631       3 -74.3631       4 -74.3631       5 -74.6712
       6 -74.6712       7 -74.7500       8 -74.6712       9 -74.5610      10 -74.5610
      11 -74.5610      12 -74.4369      13 -77.1922

 E-fermi :  -1.2861     XC(G=0):  -4.3689     alpha+bet : -3.9375

 k-point     1 :       0.0000    0.0000    0.0000
  band No.  band energies     occupation
      1     -19.5401      2.00000
      2      -9.7986      2.00000
      3      -8.2949      2.00000
      4      -7.9760      2.00000
      5      -7.7238      2.00000
      6      -7.7238      2.00000
      7      -7.6760      2.00000
      8      -7.5830      2.00000
      9      -7.5830      2.00000
     10      -7.5282      2.00000
     11      -7.1316      2.00000
     12      -7.1316      2.00000
     13      -7.1274      2.00000
     14      -7.0492      2.00000
     15      -7.0492      2.00000
     16      -7.0091      2.00000
     17      -6.5213      2.00000
     18      -6.5213      2.00000
     19      -6.0263      2.00000
     20      -5.8636      2.00000
     21      -5.8636      2.00000
     22      -5.7874      2.00000
     23      -5.6687      2.00000
     24      -5.6547      2.00000
     25      -5.6547      2.00000
     26      -5.5648      2.00000
     27      -5.5648      2.00000
     28      -5.3239      2.00000
     29      -5.3239      2.00000
     30      -5.2356      2.00000
     31      -5.1860      2.00000
     32      -5.1860      2.00000
     33      -5.1001      2.00000
     34      -4.8140      2.00000
     35      -4.8140      2.00000
     36      -4.7782      2.00000
     37      -4.5819      2.00000
     38      -4.5818      2.00000
     39      -4.2244      2.00000
     40      -4.2244      2.00000
     41      -4.1856      2.00000
     42      -4.1530      2.00000
     43      -4.0904      2.00000
     44      -4.0904      2.00000
     45      -3.9314      2.00000
     46      -3.9314      2.00000
     47      -3.5893      2.00000
     48      -3.5893      2.00000
     49      -3.4724      2.00000
     50      -3.4263      2.00000
     51      -3.3789      2.00000
     52      -3.3789      2.00000
     53      -3.3617      2.00000
     54      -3.3617      2.00000
     55      -3.1630      2.00000
     56      -3.1630      2.00000
     57      -3.1406      2.00000
     58      -3.0796      2.00000
     59      -3.0796      2.00000
     60      -3.0283      2.00000
[...]
     82       3.0809      0.00000
     83       3.4496      0.00000
     84       3.5692      0.00000
     85       4.0910      0.00000
     86       4.2189      0.00000
     87       4.4136      0.00000
     88       4.4136      0.00000
     89       4.7322      0.00000
     90       5.4876      0.00000
     91       5.5969      0.00000
     92       6.8166      0.00000
     93       7.1622      0.00000
     94       7.1622      0.00000
     95       7.3302      0.00000
     96       7.6035      0.00000

[...]

 k-point    12 :      -0.3333    0.3333    0.0000
  band No.  band energies     occupation
      1     -19.5188      2.00000
      2      -8.3168      2.00000
      3      -7.8976      2.00000
      4      -7.8174      2.00000
      5      -7.2947      2.00000
      6      -7.0186      2.00000
      7      -6.8222      2.00000
      8      -6.8009      2.00000
      9      -6.7884      2.00000
     10      -6.6321      2.00000
     11      -6.5647      2.00000
     12      -6.5492      2.00000
     13      -6.5183      2.00000
     14      -6.4503      2.00000
     15      -6.4495      2.00000
     16      -6.3274      2.00000
     17      -6.3226      2.00000
     18      -6.2253      2.00000
     19      -6.1015      2.00000
     20      -6.0831      2.00000
     21      -6.0671      2.00000
     22      -6.0484      2.00000
     23      -5.8754      2.00000
     24      -5.8731      2.00000
     25      -5.8368      2.00000
     26      -5.7752      2.00000
     27      -5.6863      2.00000
     28      -5.6269      2.00000
     29      -5.6165      2.00000
     30      -5.5388      2.00000
     31      -5.5286      2.00000
     32      -5.4363      2.00000
     33      -5.3830      2.00000
     34      -5.3239      2.00000
     35      -5.1066      2.00000
     36      -5.0478      2.00000
     37      -5.0114      2.00000
     38      -4.9749      2.00000
     39      -4.9546      2.00000
     40      -4.8792      2.00000
     41      -4.8205      2.00000
     42      -4.7347      2.00000
     43      -4.5693      2.00000
     44      -4.4808      2.00000
     45      -4.4382      2.00000
     46      -4.3844      2.00000
     47      -4.2947      2.00000
     48      -4.1897      2.00000
     49      -4.1656      2.00000
     50      -4.1005      2.00000
     51      -4.0679      2.00000
     52      -3.8500      2.00000
     53      -3.8432      2.00000
     54      -3.8409      2.00000
     55      -3.6496      2.00000
     56      -3.6362      2.00000
     57      -3.5727      2.00000
     58      -3.5099      2.00000
     59      -3.5022      2.00000
     60      -3.4711      2.00000
[...]
     82       4.3477      0.00000
     83       4.9877      0.00000
     84       5.1826      0.00000
     85       5.3977      0.00000
     86       6.0241      0.00000
     87       6.0329      0.00000
     88       6.0662      0.00000
     89       6.1404      0.00000
     90       6.1544      0.00000
     91       6.1587      0.00000
     92       6.2313      0.00000
     93       6.4211      0.00000
     94       6.7588      0.00000
     95       7.1961      0.00000
     96       7.2862      0.00000

 soft charge-density along one line, spin component           1
         0         1         2         3         4         5         6         7         8         9
 total charge-density along one line

------------------------ aborting loop because EDIFF is reached ----------------------------------------

 total charge

# of ion     s       p       d       tot
  1        0.531   0.247   8.766   9.544
  2        0.534   0.232   8.760   9.526
  3        0.553   0.232   8.769   9.554
  4        0.543   0.233   8.757   9.532
  5        0.522   0.288   8.790   9.600
  6        0.521   0.292   8.773   9.586
  7        0.510   0.304   8.764   9.577
  8        0.517   0.292   8.780   9.589
  9        0.561   0.313   8.729   9.604
 10        0.543   0.302   8.700   9.545
 11        0.567   0.318   8.747   9.632
 12        0.528   0.246   8.806   9.580
 13        1.614   3.271   0.000   4.886
tot        8.043   6.571 105.140 119.754

  FORCE on cell =-STRESS in cart. coord.  units (eV):
  Direction    XX          YY          ZZ          XY          YZ          ZX
  Alpha Z   240.41330   240.41330   240.41330
  Ewald   56124.71482 56124.71481-63949.55410    -0.00001     0.00000     0.00000
  Hartree 58745.90534 58745.90534-57637.11171    -0.00000     0.00000    -0.00000
  E(xc)    -621.48571  -621.48569  -624.77969    -0.00002     0.00001     0.00001
  Local  ************************119189.07704     0.00145    -0.00009    -0.00014
  n-local   -21.89455   -58.27622   -30.00222   -19.13940    -0.10576    -0.41472
  augment   816.03041   816.03121   824.69845    -0.00069     0.00000     0.00001
  Kinetic  1952.29303  1964.96020  1986.61429     4.67696    -1.97153     1.80802
  Fock        0.00000     0.00000     0.00000     0.00000     0.00000     0.00000
  Total      -6.11758    -6.11758    -0.64463    -0.00000     0.00000     0.00000
  in kB     -13.19736   -13.19736    -1.39065    -0.00000     0.00000     0.00000

 VOLUME and BASIS-vectors are now :
  energy-cutoff  :      400.00
  volume of cell :      742.68
      direct lattice vectors                 reciprocal lattice vectors
     5.880299990  0.000000000  0.000000000     0.170059351 -0.098183812  0.000000000
     2.940150000  5.092489180  0.000000000     0.000000000  0.196367624  0.000000000
     0.000000000  0.000000000 24.801244840     0.000000000  0.000000000  0.040320557

  length of vectors
     5.880299990  5.880299998 24.801244840     0.196367624  0.196367624  0.040320557

 FORCES acting on ions
    electron-ion (+dipol)            ewald-force                    non-local-force                 convergence-correction
   0.141E-04 0.822E-05 0.215E+04   -.143E-05 -.897E-06 -.215E+04   -.173E-17 0.000E+00 -.707E+00   -.749E-08 -.433E-08 0.983E-03
   -.828E-05 0.231E+01 0.216E+04   0.197E-05 -.229E+01 -.216E+04   -.238E-10 -.242E-01 -.706E-01   0.739E-08 -.904E-04 0.716E-03
   0.200E+01 -.115E+01 0.216E+04   -.199E+01 0.115E+01 -.216E+04   -.210E-01 0.121E-01 -.706E-01   -.783E-04 0.452E-04 0.716E-03
   -.200E+01 -.115E+01 0.216E+04   0.199E+01 0.115E+01 -.216E+04   0.210E-01 0.121E-01 -.706E-01   0.783E-04 0.452E-04 0.716E-03
   -.351E+01 0.203E+01 0.151E+03   0.358E+01 -.207E+01 -.151E+03   -.670E-01 0.387E-01 -.174E-01   0.290E-03 -.167E-03 -.874E-02
   0.351E+01 0.203E+01 0.151E+03   -.358E+01 -.207E+01 -.151E+03   0.670E-01 0.387E-01 -.174E-01   -.290E-03 -.167E-03 -.874E-02
   0.150E-04 0.868E-05 0.116E+03   0.205E-04 0.118E-04 -.115E+03   0.000E+00 0.694E-17 -.112E+01   0.335E-07 0.193E-07 -.694E-02
   0.110E-05 -.405E+01 0.151E+03   -.169E-04 0.413E+01 -.151E+03   -.760E-10 -.774E-01 -.174E-01   -.296E-07 0.335E-03 -.874E-02
   0.381E+02 0.220E+02 -.194E+04   -.397E+02 -.229E+02 0.194E+04   0.167E+01 0.963E+00 -.215E+00   -.469E-02 -.271E-02 -.139E-01
   -.381E+02 0.220E+02 -.194E+04   0.397E+02 -.229E+02 0.194E+04   -.167E+01 0.963E+00 -.215E+00   0.469E-02 -.271E-02 -.139E-01
   0.124E-04 -.440E+02 -.194E+04   0.339E-06 0.459E+02 0.194E+04   -.189E-08 -.193E+01 -.215E+00   0.340E-07 0.542E-02 -.139E-01
   0.126E-05 0.649E-06 -.184E+04   -.192E-06 -.305E-07 0.183E+04   -.173E-17 0.000E+00 0.207E+01   -.102E-07 -.592E-08 -.134E-01
   0.439E-04 0.251E-04 -.152E+04   -.459E-05 -.218E-05 0.155E+04   0.165E-16 -.694E-17 -.255E+02   0.150E-07 0.870E-08 -.204E-02
   0.778E-04 0.450E-04 0.263E+02   -.235E-13 0.107E-13 -.455E-12   0.265E-15 -.694E-17 -.262E+02   0.339E-07 0.196E-07 -.870E-01

 POSITION                                       TOTAL-FORCE (eV/Angst)
      1.47008      0.84875     10.00764        -0.000000      0.000000     -0.024614
      4.41023      0.84549      9.96890        -0.000000     -0.012580     -0.003296
      2.93733      3.39662      9.96890        -0.010894      0.006290     -0.003296
      5.88312      3.39662      9.96890         0.010894      0.006290     -0.003296
      5.89543      1.68876     12.38398         0.001795     -0.001036     -0.012175
      2.92502      1.68876     12.38398        -0.001795     -0.001036     -0.012175
      7.35037      4.24374     12.46325        -0.000000      0.000000      0.034378
      4.41023      4.26121     12.38398         0.000000      0.002073     -0.012175
      8.72617      5.03806     14.88847        -0.004048     -0.002337      0.007349
      5.97458      5.03806     14.88847         0.004048     -0.002337      0.007349
      7.35037      2.65511     14.88847         0.000000      0.004674      0.007349
      4.41022      2.54624     14.62693        -0.000000      0.000000      0.014437
      1.47008      0.84875     15.98685        -0.000000      0.000000      0.000166
    total drift:                                0.000078      0.000045     -0.002302

  FREE ENERGIE OF THE ION-ELECTRON SYSTEM (eV)
  free  energy   TOTEN  =       -40.96015358 eV

  energy  without entropy=      -40.95540670  energy(sigma->0) =      -40.95857128

 total charge

# of ion     s       p       d       tot
  1        0.531   0.247   8.766   9.544
  2        0.534   0.232   8.760   9.526
  3        0.553   0.232   8.769   9.554
  4        0.543   0.233   8.757   9.532
  5        0.522   0.288   8.790   9.600
  6        0.521   0.292   8.773   9.586
  7        0.510   0.304   8.764   9.577
  8        0.517   0.292   8.780   9.589
  9        0.561   0.313   8.729   9.604
 10        0.543   0.302   8.700   9.545
 11        0.567   0.318   8.747   9.632
 12        0.528   0.246   8.806   9.580
 13        1.614   3.271   0.000   4.886
tot        8.043   6.571 105.140 119.754