 vasp.5.4.1 05Feb16 (build Feb 08 2018 09:21:51) complex

 executed on             LinuxIFC date 2019.11.21  23:49:32

 INCAR:
 POTCAR:    PAW_PBE Au 04Oct2007

 POTCAR:    PAW_PBE Au 04Oct2007
   VRHFIN =Au: s1d10

   TITEL  = PAW_PBE Au 04Oct2007
   POMASS =  196.966; ZVAL   =   11.000    mass and valenz
   ENMAX  =  229.943; ENMIN  =  172.457 eV

  PAW_PBE Au 04Oct2007                  :

 POSCAR: Au
  positions in cartesian coordinates
 exchange correlation table for  LEXCH =        8
   RHO(1)=    0.500       N(1)  =     2000
   RHO(2)=  100.500       N(2)  =     4000

 ion  position               nearest neighbor table
   1  0.167  0.167  0.403-   2 2.94   2 2.94   4 2.94   4 2.94   3 2.94   3 2.94   6 2.95   5 2.95
                             8 2.95
   2  0.667  0.167  0.403-   1 2.94   1 2.94   3 2.94   3 2.94   4 2.94   4 2.94   5 2.95   6 2.95
                             7 2.95
   3  0.167  0.667  0.403-   4 2.94   4 2.94   2 2.94   2 2.94   1 2.94   1 2.94   8 2.95   7 2.95
                             6 2.95
   4  0.667  0.667  0.403-   3 2.94   3 2.94   1 2.94   1 2.94   2 2.94   2 2.94   7 2.95   8 2.95
                             5 2.95
   5  0.833  0.333  0.500-   6 2.94   6 2.94   8 2.94   8 2.94   7 2.94   7 2.94   2 2.95  12 2.95
                             9 2.95   1 2.95  11 2.95   4 2.95
   6  0.333  0.333  0.500-   5 2.94   5 2.94   7 2.94   7 2.94   8 2.94   8 2.94   1 2.95  11 2.95
                            10 2.95   2 2.95  12 2.95   3 2.95
   7  0.833  0.833  0.500-   8 2.94   8 2.94   6 2.94   6 2.94   5 2.94   5 2.94   4 2.95  10 2.95
                            11 2.95   3 2.95   9 2.95   2 2.95
   8  0.333  0.833  0.500-   7 2.94   7 2.94   5 2.94   5 2.94   6 2.94   6 2.94   3 2.95   9 2.95
                            12 2.95   4 2.95  10 2.95   1 2.95
   9  0.000  0.000  0.597-  10 2.94  10 2.94  12 2.94  12 2.94  11 2.94  11 2.94   8 2.95   5 2.95
                             7 2.95
  10  0.500  0.000  0.597-   9 2.94   9 2.94  11 2.94  11 2.94  12 2.94  12 2.94   7 2.95   6 2.95
                             8 2.95
  11  0.000  0.500  0.597-  12 2.94  12 2.94  10 2.94  10 2.94   9 2.94   9 2.94   6 2.95   7 2.95
                             5 2.95
  12  0.500  0.500  0.597-  11 2.94  11 2.94   9 2.94   9 2.94  10 2.94  10 2.94   5 2.95   8 2.95
                             6 2.95

  LATTYP: Found a hexagonal cell.
 ALAT       =     5.8802999934
 C/A-ratio  =     4.2176835991

  Lattice vectors:

 A1 = (   2.9401499900,  -5.0924891800,   0.0000000000)
 A2 = (  -5.8802999900,   0.0000000000,   0.0000000000)
 A3 = (   0.0000000000,   0.0000000000, -24.8012448400)

Analysis of symmetry for initial positions (statically):
 Subroutine PRICEL returns following result:

[...]

   4 primitive cells build up your supercell.

 Routine SETGRP: Setting up the symmetry group for a
 hexagonal supercell.

 Subroutine GETGRP returns: Found 12 space group operations
 (whereof  6 operations were pure point group operations)
 out of a pool of 24 trial point group operations.

The static configuration has the point symmetry C_3v.
 The point group associated with its full space group is D_3d.

Analysis of symmetry for dynamics (positions and initial velocities):
 Subroutine PRICEL returns following result:

  LATTYP: Found a hexagonal cell.
 ALAT       =     2.9401499967
 C/A-ratio  =     8.4353671982

  Lattice vectors:

 A1 = (   1.4700749950,  -2.5462445900,   0.0000000000)
 A2 = (  -2.9401499950,   0.0000000000,   0.0000000000)
 A3 = (   0.0000000000,   0.0000000000, -24.8012448400)

   4 primitive cells build up your supercell.

 Routine SETGRP: Setting up the symmetry group for a
 hexagonal supercell.

 Subroutine GETGRP returns: Found 12 space group operations
 (whereof  6 operations were pure point group operations)
 out of a pool of 24 trial point group operations.

The dynamic configuration has the point symmetry C_3v.
 The point group associated with its full space group is D_3d.

 Subroutine INISYM returns: Found 12 space group operations
 (whereof  6 operations are pure point group operations),
 and found     4 'primitive' translations

 KPOINTS: KPOINTS created by Atomic Simulation Env

Automatic generation of k-mesh.
Space group operators:
 irot       det(A)        alpha          n_x          n_y          n_z        tau_x        tau_y        tau_z
    1     1.000000     0.000000     1.000000     0.000000     0.000000     0.000000     0.000000     0.000000
    2     1.000000   120.000000     0.000000     0.000000     1.000000     0.000000     0.000000     0.000000
    3     1.000000   120.000000     0.000000     0.000000    -1.000000     0.000000     0.000000     0.000000
    4    -1.000000   180.000000     0.500000    -0.866025     0.000000     0.000000     0.000000     0.000000
    5    -1.000000   180.000000     1.000000    -0.000000     0.000000     0.000000     0.000000     0.000000
    6    -1.000000   180.000000    -0.500000    -0.866025     0.000000     0.000000     0.000000     0.000000
    7    -1.000000     0.000000     1.000000     0.000000     0.000000     0.166667    -0.333333     0.000000
    8    -1.000000   120.000000     0.000000     0.000000     1.000000     0.166667    -0.333333     0.000000
    9    -1.000000   120.000000     0.000000     0.000000    -1.000000     0.166667    -0.333333     0.000000
   10     1.000000   180.000000     0.500000    -0.866025     0.000000     0.166667    -0.333333     0.000000
   11     1.000000   180.000000     1.000000    -0.000000     0.000000     0.166667    -0.333333     0.000000
   12     1.000000   180.000000    -0.500000    -0.866025     0.000000     0.166667    -0.333333     0.000000

 Subroutine IBZKPT returns following result:

 Found     12 irreducible k-points:

 Following reciprocal coordinates:
            Coordinates               Weight
  0.000000  0.000000  0.000000      1.000000
  0.111111  0.000000  0.000000      6.000000
  0.222222  0.000000  0.000000      6.000000
  0.333333  0.000000  0.000000      6.000000
  0.444444  0.000000  0.000000      6.000000
  0.222222  0.111111  0.000000      6.000000
  0.333333  0.111111  0.000000     12.000000
  0.444444  0.111111  0.000000     12.000000
 -0.444444  0.111111  0.000000      6.000000
  0.444444  0.222222  0.000000      6.000000
 -0.444444  0.222222  0.000000     12.000000
 -0.333333  0.333333  0.000000      2.000000

 Following cartesian coordinates:
            Coordinates               Weight
  0.000000  0.000000  0.000000      1.000000
  0.018895 -0.010909  0.000000      6.000000
  0.037791 -0.021819  0.000000      6.000000
  0.056686 -0.032728  0.000000      6.000000
  0.075582 -0.043637  0.000000      6.000000
  0.037791 -0.000000  0.000000      6.000000
  0.056686 -0.010909  0.000000     12.000000
  0.075582 -0.021819  0.000000     12.000000
 -0.075582  0.065456  0.000000      6.000000
  0.075582 -0.000000  0.000000      6.000000
 -0.075582  0.087274  0.000000     12.000000
 -0.056686  0.098184  0.000000      2.000000

 I would recommend the setting:
   dimension x,y,z NGX =    29 NGY =   29 NGZ =  121
 SYSTEM =  unknown system
 POSCAR =  Au

 Startparameter for this run:
   NWRITE =      2    write-flag & timer
   PREC   = normal    normal or accurate (medium, high low for compatibility)
   ISTART =      0    job   : 0-new  1-cont  2-samecut
   ICHARG =      2    charge: 1-file 2-atom 10-const
   ISPIN  =      1    spin polarized calculation?
   LNONCOLLINEAR =      F non collinear calculations
   LSORBIT =      F    spin-orbit coupling
   INIWAV =      1    electr: 0-lowe 1-rand  2-diag
   LASPH  =      F    aspherical Exc in radial PAW
   METAGGA=      F    non-selfconsistent MetaGGA calc.

 Electronic Relaxation 1
   ENCUT  =  400.0 eV  29.40 Ry    5.42 a.u.   9.59  9.59 40.44*2*pi/ulx,y,z
   ENINI  =  400.0     initial cutoff
   ENAUG  =  356.7 eV  augmentation charge cutoff
   NELM   =     60;   NELMIN=  2; NELMDL= -5     # of ELM steps
   EDIFF  = 0.1E-03   stopping-criterion for ELM
   LREAL  =      F    real-space projection
   NLSPLINE    = F    spline interpolate recip. space projectors
   LCOMPAT=      F    compatible to vasp.4.4
   GGA_COMPAT  = T    GGA compatible to vasp.4.4-vasp.4.6
   LMAXPAW     = -100 max onsite density
   LMAXMIX     =    2 max onsite mixed and CHGCAR
   VOSKOWN=      0    Vosko Wilk Nusair interpolation
   ROPT   =    0.00000
 Ionic relaxation
   EDIFFG = 0.1E-02   stopping-criterion for IOM
   NSW    =      0    number of steps for IOM
   NBLOCK =      1;   KBLOCK =      1    inner block; outer block
   IBRION =     -1    ionic relax: 0-MD 1-quasi-New 2-CG
   NFREE  =      0    steps in history (QN), initial steepest desc. (CG)
   ISIF   =      2    stress and relaxation
   IWAVPR =     10    prediction:  0-non 1-charg 2-wave 3-comb
   ISYM   =      2    0-nonsym 1-usesym 2-fastsym
   LCORR  =      T    Harris-Foulkes like correction to forces

   POTIM  = 0.5000    time-step for ionic-motion
   TEIN   =    0.0    initial temperature
   TEBEG  =    0.0;   TEEND  =   0.0 temperature during run
   SMASS  =  -3.00    Nose mass-parameter (am)
   estimated Nose-frequenzy (Omega)   =  0.10E-29 period in steps =****** mass=  -0.790E-27a.u.
   SCALEE = 1.0000    scale energy and forces
   NPACO  =    256;   APACO  = 16.0  distance and # of slots for P.C.
   PSTRESS=    0.0 pullay stress

  Mass of Ions in am
   POMASS = 196.97
  Ionic Valenz
   ZVAL   =  11.00
  Atomic Wigner-Seitz radii
  virtual crystal weights
   VCA    =   1.00
   NELECT =     132.0000    total number of electrons
   NUPDOWN=      -1.0000    fix difference up-down

 DOS related values:
   EMIN   =  10.00;   EMAX   =-10.00  energy-range for DOS
   EFERMI =   0.00
   ISMEAR =     1;   SIGMA  =   0.10  broadening in eV -4-tet -1-fermi 0-gaus

 Electronic relaxation 2 (details)
   IALGO  =     38    algorithm
   LDIAG  =      T    sub-space diagonalisation (order eigenvalues)
   LSUBROT=      F    optimize rotation matrix (better conditioning)
   TURBO    =      0    0=normal 1=particle mesh
   IRESTART =      0    0=no restart 2=restart with 2 vectors
   NREBOOT  =      0    no. of reboots
   NMIN     =      0    reboot dimension
   EREF     =   0.00    reference energy to select bands
   IMIX   =      4    mixing-type and parameters
     AMIX     =   0.40;   BMIX     =  1.00
     AMIX_MAG =   1.60;   BMIX_MAG =  1.00
     AMIN     =   0.10
     WC   =   100.;   INIMIX=   1;  MIXPRE=   1;  MAXMIX= -45

 Intra band minimization:
   WEIMIN = 0.0000     energy-eigenvalue tresh-hold
   EBREAK =  0.26E-06  absolut break condition
   DEPER  =   0.30     relativ break condition

   TIME   =   0.40     timestep for ELM

  volume/ion in A,a.u.               =      61.89       417.66
  Fermi-wavevector in a.u.,A,eV,Ry     =   0.920446  1.739391 11.527146  0.847221
  Thomas-Fermi vector in A             =   2.045753

 Write flags
   LWAVE  =      F    write WAVECAR
   LCHARG =      F    write CHGCAR
   LVTOT  =      F    write LOCPOT, total local potential
   LVHAR  =      F    write LOCPOT, Hartree potential only
   LELF   =      F    write electronic localiz. function (ELF)
   LORBIT =     10    0 simple, 1 ext, 2 COOP (PROOUT)

[...]

 k-point  1 :   0.0000 0.0000 0.0000  plane waves:   13545
 k-point  2 :   0.1111 0.0000 0.0000  plane waves:   13569
 k-point  3 :   0.2222 0.0000 0.0000  plane waves:   13513
 k-point  4 :   0.3333 0.0000 0.0000  plane waves:   13500
 k-point  5 :   0.4444 0.0000 0.0000  plane waves:   13456
 k-point  6 :   0.2222 0.1111 0.0000  plane waves:   13505
 k-point  7 :   0.3333 0.1111 0.0000  plane waves:   13506
 k-point  8 :   0.4444 0.1111 0.0000  plane waves:   13477
 k-point  9 :  -0.4444 0.1111 0.0000  plane waves:   13452
 k-point 10 :   0.4444 0.2222 0.0000  plane waves:   13492
 k-point 11 :  -0.4444 0.2222 0.0000  plane waves:   13483
 k-point 12 :  -0.3333 0.3333 0.0000  plane waves:   13470

 maximum and minimum number of plane-waves per node :     13569    13452

 maximum number of plane-waves:     13569
 maximum index in each direction:
   IXMAX=   10   IYMAX=    9   IZMAX=   40
   IXMIN=  -10   IYMIN=   -9   IZMIN=  -40

 WARNING: aliasing errors must be expected set NGX to  42 to avoid them
 WARNING: aliasing errors must be expected set NGY to  38 to avoid them
 WARNING: aliasing errors must be expected set NGZ to 162 to avoid them
 aliasing errors are usually negligible using standard VASP settings
 and one can safely disregard these warnings

 serial   3D FFT for wavefunctions
 parallel 3D FFT for charge:
    minimum data exchange during FFTs selected (reduces bandwidth)

 Broyden mixing: mesh for mixing (old mesh)
   NGX = 19   NGY = 19   NGZ = 81
  (NGX  = 60   NGY  = 60   NGZ  =252)
  gives a total of  29241 points

 initial charge density was supplied:
 charge density of overlapping atoms calculated
 number of electron     132.0000000 magnetization
 keeping initial charge density in first step

 Maximum index for augmentation-charges          714 (set IRDMAX)

 First call to EWALD:  gamma=   0.196
 Maximum number of real-space cells 5x 5x 1
 Maximum number of reciprocal cells 2x 2x 7

 FEWALD executed in parallel

----------------------------------------- Iteration    1(   1)  ---------------------------------------

 eigenvalue-minimisations  :  2304
 total energy-change (2. order) : 0.7471879E+03  (-0.4781302E+04)
 number of electron     132.0000000 magnetization
 augmentation part      132.0000000 magnetization

 Free energy of the ion-electron system (eV)
  alpha Z        PSCENC =       225.84438837
  Ewald energy   TEWEN  =     45603.05135447
  -Hartree energ DENC   =    -56919.07658882
  -exchange      EXHF   =         0.00000000
  -V(xc)+E(xc)   XCENC  =       182.05161600
  PAW double counting   =     10489.17004023   -10212.12161789
  entropy T*S    EENTRO =        -0.00301090
  eigenvalues    EBANDS =       265.30551009
  atomic energy  EATOM  =     11112.96622521
  Solvation  Ediel_sol  =         0.00000000
  free energy    TOTEN  =       747.18791676 eV

  energy without entropy =      747.19092766  energy(sigma->0) =      747.18892039

[...]

 eigenvalue-minimisations  :  2832
 total energy-change (2. order) :-0.7517316E+03  (-0.7015169E+03)
 number of electron     132.0000000 magnetization
 augmentation part      132.0000000 magnetization

[...]

 Broyden mixing:
  rms(total) = 0.22365E+01    rms(broyden)= 0.22364E+01
  rms(prec ) = 0.22713E+01
  weight for this iteration     100.00

[...]

 eigenvalues of (default mixing * dielectric matrix)
  average eigenvalue GAMMA=   1.7079
  1.7079

[...]

 eigenvalue-minimisations  :  2640
 total energy-change (2. order) : 0.1177326E-01  (-0.4805657E-02)
 number of electron     132.0000169 magnetization
 augmentation part       48.3758891 magnetization

[...]

 Broyden mixing:
  rms(total) = 0.21267E-03    rms(broyden)= 0.21266E-03
  rms(prec ) = 0.25343E-03
  weight for this iteration     100.00

 eigenvalues of (default mixing * dielectric matrix)
  average eigenvalue GAMMA=   1.9352
  6.1156  2.5659  2.5378  2.1602  0.7276  1.2253  1.1386  1.0114  1.0114  0.8577

[...]

----------------------------------------- Iteration    1(  16)  ---------------------------------------

 eigenvalue-minimisations  :  1896
 total energy-change (2. order) :-0.3967475E-04  (-0.2141657E-06)
 number of electron     132.0000169 magnetization
 augmentation part       48.3777403 magnetization

 Free energy of the ion-electron system (eV)
  alpha Z        PSCENC =       225.84438837
  Ewald energy   TEWEN  =     45603.05135447
  -Hartree energ DENC   =    -56760.24315629
  -exchange      EXHF   =         0.00000000
  -V(xc)+E(xc)   XCENC  =       176.42019641
  PAW double counting   =     11934.60242430   -11683.24894802
  entropy T*S    EENTRO =        -0.01633769
  eigenvalues    EBANDS =      -645.24198176
  atomic energy  EATOM  =     11112.96622521
  Solvation  Ediel_sol  =         0.00000000
  free energy    TOTEN  =       -35.86583502 eV

  energy without entropy =      -35.84949733  energy(sigma->0) =      -35.86038913

 average (electrostatic) potential at core
  the test charge radii are     1.2098
  (the norm of the test charge is              1.0000)
       1 -74.2677       2 -74.2677       3 -74.2677       4 -74.2677       5 -74.6155
       6 -74.6155       7 -74.6155       8 -74.6155       9 -74.2677      10 -74.2677
      11 -74.2677      12 -74.2677

 E-fermi :  -1.2074     XC(G=0):  -4.2774     alpha+bet : -3.8366

 k-point     1 :       0.0000    0.0000    0.0000
  band No.  band energies     occupation
      1      -9.7493      2.00000
      2      -8.2030      2.00000
      3      -7.8231      2.00000
      4      -7.5351      2.00000
      5      -7.5351      2.00000
      6      -7.5351      2.00000
      7      -7.2759      2.00000
      8      -7.2759      2.00000
      9      -7.2759      2.00000
     10      -6.9568      2.00000
     11      -6.9568      2.00000
     12      -6.9568      2.00000
     13      -6.8087      2.00000
     14      -6.8087      2.00000
     15      -6.8087      2.00000
     16      -5.7641      2.00000
     17      -5.7641      2.00000
     18      -5.7641      2.00000
     19      -5.6122      2.00000
     20      -5.6122      2.00000
     21      -5.6122      2.00000
     22      -5.5279      2.00000
     23      -5.4924      2.00000
     24      -5.4924      2.00000
     25      -5.1810      2.00000
     26      -5.1810      2.00000
     27      -5.1167      2.00000
     28      -5.1167      2.00000
     29      -5.1167      2.00000
     30      -5.0792      2.00000
     31      -5.0112      2.00000
     32      -5.0112      2.00000
     33      -4.5418      2.00000
     34      -4.5418      2.00000
     35      -4.5418      2.00000
     36      -4.1009      2.00000
     37      -4.1009      2.00000
     38      -4.0362      2.00000
     39      -4.0362      2.00000
     40      -4.0362      2.00000
     41      -3.8182      2.00000
     42      -3.8182      2.00000
     43      -3.8182      2.00000
     44      -3.6195      2.00000
     45      -3.6195      2.00000
     46      -3.2926      2.00000
     47      -3.2926      2.00000
     48      -3.2926      2.00000
     49      -3.1851      2.00000
     50      -3.1851      2.00000
     51      -3.1810      2.00000
     52      -3.1810      2.00000
     53      -3.1810      2.00000
     54      -3.0687      2.00000
     55      -3.0687      2.00000
     56      -3.0687      2.00000
     57      -2.7407      2.00000
     58      -2.7407      2.00000
     59      -2.7407      2.00000
     60      -2.7190      2.00000
[...]
     82       3.6320      0.00000
     83       3.6320      0.00000
     84       3.9468      0.00000
     85       4.1100      0.00000
     86       5.2682      0.00000
     87       5.4288      0.00000
     88       6.9612      0.00000
     89       6.9612      0.00000
     90       6.9612      0.00000
     91       7.1521      0.00000
     92       7.4309      0.00000
     93       7.5473      0.00000
     94       7.5473      0.00000
     95       7.5473      0.00000
     96       8.7545      0.00000

[...]

 k-point    12 :      -0.3333    0.3333    0.0000
  band No.  band energies     occupation
      1      -7.7560      2.00000
      2      -7.7560      2.00000
      3      -7.7560      2.00000
      4      -6.7175      2.00000
      5      -6.7175      2.00000
      6      -6.7175      2.00000
      7      -6.4665      2.00000
      8      -6.4162      2.00000
      9      -6.4162      2.00000
     10      -6.3923      2.00000
     11      -6.3923      2.00000
     12      -6.3923      2.00000
     13      -6.2868      2.00000
     14      -6.2868      2.00000
     15      -6.2868      2.00000
     16      -5.9707      2.00000
     17      -5.9707      2.00000
     18      -5.8038      2.00000
     19      -5.8038      2.00000
     20      -5.8038      2.00000
     21      -5.6242      2.00000
     22      -5.6242      2.00000
     23      -5.6242      2.00000
     24      -5.4461      2.00000
     25      -5.4461      2.00000
     26      -5.4461      2.00000
     27      -5.3674      2.00000
     28      -5.3674      2.00000
     29      -5.3674      2.00000
     30      -5.2524      2.00000
     31      -4.9128      2.00000
     32      -4.9128      2.00000
     33      -4.9050      2.00000
     34      -4.8932      2.00000
     35      -4.8722      2.00000
     36      -4.8722      2.00000
     37      -4.8722      2.00000
     38      -4.7822      2.00000
     39      -4.7822      2.00000
     40      -4.7822      2.00000
     41      -4.3612      2.00000
     42      -4.3612      2.00000
     43      -4.3612      2.00000
     44      -4.1954      2.00000
     45      -4.1954      2.00000
     46      -4.0300      2.00000
     47      -4.0300      2.00000
     48      -4.0300      2.00000
     49      -3.8518      2.00000
     50      -3.8518      2.00000
     51      -3.8518      2.00000
     52      -3.4685      2.00000
     53      -3.4685      2.00000
     54      -3.4685      2.00000
     55      -3.4005      2.00000
     56      -3.4005      2.00000
     57      -3.3538      2.00000
     58      -3.3538      2.00000
     59      -3.3538      2.00000
     60      -3.2878      2.00000
[...]
     82       5.9427      0.00000
     83       5.9427      0.00000
     84       5.9427      0.00000
     85       5.9710      0.00000
     86       5.9710      0.00000
     87       5.9710      0.00000
     88       6.0020      0.00000
     89       6.0020      0.00000
     90       6.5503      0.00000
     91       7.0838      0.00000
     92       7.0838      0.00000
     93       7.0838      0.00000
     94       7.2033      0.00000
     95       7.2033      0.00000
     96       7.2033      0.00000

 soft charge-density along one line, spin component           1
         0         1         2         3         4         5         6         7         8         9
 total charge-density along one line

------------------------ aborting loop because EDIFF is reached ----------------------------------------

 total charge

# of ion     s       p       d       tot
  1        0.543   0.238   8.762   9.543
  2        0.543   0.238   8.762   9.543
  3        0.543   0.238   8.762   9.543
  4        0.543   0.238   8.762   9.543
  5        0.511   0.291   8.781   9.584
  6        0.511   0.291   8.781   9.584
  7        0.511   0.291   8.781   9.584
  8        0.511   0.291   8.781   9.584
  9        0.543   0.238   8.762   9.543
 10        0.543   0.238   8.762   9.543
 11        0.543   0.238   8.762   9.543
 12        0.543   0.238   8.762   9.543
tot        6.388   3.071 105.223 114.682

  FORCE on cell =-STRESS in cart. coord.  units (eV):
  Direction    XX          YY          ZZ          XY          YZ          ZX
  Alpha Z   225.84439   225.84439   225.84439
  Ewald   53220.26861 53220.26860-60837.49802     0.00000     0.00000     0.00000
  Hartree 55764.52760 55764.52760-54768.84408     0.00000     0.00000     0.00000
  E(xc)    -591.42826  -591.42824  -594.83924    -0.00002     0.00000     0.00000
  Local  ************************113313.22383     0.00096    -0.00000    -0.00000
  n-local    -3.43136   -48.34341   -11.76358   -22.83001    -0.75206     0.46474
  augment   810.44368   810.44451   818.30589    -0.00072    -0.00000    -0.00001
  Kinetic  1824.30383  1834.55276  1855.93214     4.32124    -0.37779     0.43520
  Fock        0.00000     0.00000     0.00000     0.00000     0.00000     0.00000
  Total     -10.70257   -10.70257     0.36133    -0.00000     0.00000     0.00000
  in kB     -23.08849   -23.08849     0.77949    -0.00000     0.00000     0.00000

 VOLUME and BASIS-vectors are now :
  energy-cutoff  :      400.00
  volume of cell :      742.68
      direct lattice vectors                 reciprocal lattice vectors
     5.880299990  0.000000000  0.000000000     0.170059351 -0.098183812  0.000000000
     2.940150000  5.092489180  0.000000000     0.000000000  0.196367624  0.000000000
     0.000000000  0.000000000 24.801244840     0.000000000  0.000000000  0.040320557

  length of vectors
     5.880299990  5.880299998 24.801244840     0.196367624  0.196367624  0.040320557

 FORCES acting on ions
    electron-ion (+dipol)            ewald-force                    non-local-force                 convergence-correction
   -.893E-05 -.511E-05 0.206E+04   -.765E-06 -.507E-06 -.206E+04   0.249E-17 -.542E-18 -.239E+00   -.119E-08 -.696E-09 -.242E-02
   -.893E-05 -.511E-05 0.206E+04   -.765E-06 -.507E-06 -.206E+04   -.314E-17 -.141E-17 -.239E+00   -.119E-08 -.696E-09 -.242E-02
   -.893E-05 -.511E-05 0.206E+04   -.765E-06 -.507E-06 -.206E+04   -.493E-17 -.249E-17 -.239E+00   -.119E-08 -.696E-09 -.242E-02
   -.893E-05 -.511E-05 0.206E+04   -.765E-06 -.507E-06 -.206E+04   -.184E-17 0.976E-18 -.239E+00   -.119E-08 -.696E-09 -.242E-02
   0.834E-05 0.482E-05 -.529E-06   0.120E-05 0.691E-06 -.171E-12   -.182E-22 0.265E-22 0.414E-23   0.957E-09 0.553E-09 -.996E-10
   0.834E-05 0.482E-05 -.529E-06   0.120E-05 0.691E-06 0.568E-13   0.662E-23 -.265E-22 0.496E-23   0.957E-09 0.553E-09 -.996E-10
   0.834E-05 0.482E-05 -.529E-06   0.120E-05 0.691E-06 -.114E-12   0.132E-22 0.000E+00 0.807E-23   0.957E-09 0.553E-09 -.996E-10
   0.834E-05 0.482E-05 -.529E-06   0.120E-05 0.691E-06 -.114E-12   -.364E-22 0.000E+00 0.132E-22   0.957E-09 0.553E-09 -.995E-10
   0.172E-06 0.530E-07 -.206E+04   -.431E-06 -.184E-06 0.206E+04   0.260E-17 0.358E-17 0.239E+00   0.112E-09 0.735E-10 0.242E-02
   0.172E-06 0.530E-07 -.206E+04   -.431E-06 -.184E-06 0.206E+04   -.271E-17 -.651E-18 0.239E+00   0.112E-09 0.734E-10 0.242E-02
   0.172E-06 0.530E-07 -.206E+04   -.431E-06 -.184E-06 0.206E+04   -.249E-17 0.173E-17 0.239E+00   0.112E-09 0.735E-10 0.242E-02
   0.172E-06 0.530E-07 -.206E+04   -.431E-06 -.184E-06 0.206E+04   0.179E-17 0.141E-17 0.239E+00   0.112E-09 0.735E-10 0.242E-02
   -.165E-05 -.953E-06 -.430E-05   -.267E-13 -.549E-14 0.000E+00   -.824E-17 0.260E-17 0.250E-15   -.484E-09 -.279E-09 -.757E-09

 POSITION                                       TOTAL-FORCE (eV/Angst)
      1.47008      0.84875      9.98978         0.000000      0.000000     -0.026141
      4.41023      0.84875      9.98978         0.000000      0.000000     -0.026141
      2.94015      3.39499      9.98978         0.000000      0.000000     -0.026141
      5.88030      3.39499      9.98978         0.000000      0.000000     -0.026141
      5.88030      1.69750     12.40062         0.000000     -0.000000      0.000000
      2.94015      1.69750     12.40062        -0.000000     -0.000000      0.000000
      7.35037      4.24374     12.40062        -0.000000      0.000000      0.000000
      4.41022      4.24374     12.40062         0.000000     -0.000000      0.000000
      0.00000      0.00000     14.81146        -0.000000      0.000000      0.026141
      2.94015      0.00000     14.81146        -0.000000     -0.000000      0.026141
      1.47008      2.54624     14.81146        -0.000000     -0.000000      0.026141
      4.41022      2.54624     14.81146        -0.000000     -0.000000      0.026141
    total drift:                               -0.000002     -0.000001     -0.000004

  FREE ENERGIE OF THE ION-ELECTRON SYSTEM (eV)
  free  energy   TOTEN  =       -35.86583502 eV

  energy  without entropy=      -35.84949733  energy(sigma->0) =      -35.86038913

 total charge

# of ion     s       p       d       tot
  1        0.543   0.238   8.762   9.543
  2        0.543   0.238   8.762   9.543
  3        0.543   0.238   8.762   9.543
  4        0.543   0.238   8.762   9.543
  5        0.511   0.291   8.781   9.584
  6        0.511   0.291   8.781   9.584
  7        0.511   0.291   8.781   9.584
  8        0.511   0.291   8.781   9.584
  9        0.543   0.238   8.762   9.543
 10        0.543   0.238   8.762   9.543
 11        0.543   0.238   8.762   9.543
 12        0.543   0.238   8.762   9.543
tot        6.388   3.071 105.223 114.682