 vasp.5.4.1 05Feb16 (build Feb 08 2018 09:21:51) complex

 executed on             LinuxIFC date 2019.11.21  23:49:19

 INCAR:
 POTCAR:    PAW_PBE Ag 02Apr2005

 POTCAR:    PAW_PBE Ag 02Apr2005
   VRHFIN =Ag : s1 d10

   TITEL  = PAW_PBE Ag 02Apr2005
   POMASS =  107.868; ZVAL   =   11.000    mass and valenz
   ENMAX  =  249.844; ENMIN  =  187.383 eV

  PAW_PBE Ag 02Apr2005                  :

 POSCAR: Ag
  positions in cartesian coordinates
 exchange correlation table for  LEXCH =        8
   RHO(1)=    0.500       N(1)  =     2000
   RHO(2)=  100.500       N(2)  =     4000

 ion  position               nearest neighbor table
   1  0.167  0.167  0.404-   6 2.92   5 2.92   8 2.92   2 2.93   2 2.93   3 2.93   4 2.93   3 2.93
                             4 2.93
   2  0.667  0.167  0.404-   5 2.92   6 2.92   7 2.92   1 2.93   1 2.93   3 2.93   4 2.93   4 2.93
                             3 2.93
   3  0.167  0.667  0.404-   8 2.92   7 2.92   6 2.92   4 2.93   4 2.93   1 2.93   2 2.93   2 2.93
                             1 2.93
   4  0.667  0.667  0.404-   7 2.92   8 2.92   5 2.92   3 2.93   3 2.93   1 2.93   2 2.93   1 2.93
                             2 2.93
   5  0.833  0.333  0.500-   2 2.92  12 2.92   9 2.92  11 2.92   1 2.92   4 2.92   6 2.93   6 2.93
                             7 2.93   8 2.93   7 2.93   8 2.93
   6  0.333  0.333  0.500-   1 2.92  11 2.92  10 2.92  12 2.92   2 2.92   3 2.92   5 2.93   5 2.93
                             7 2.93   8 2.93   8 2.93   7 2.93
   7  0.833  0.833  0.500-   4 2.92  10 2.92  11 2.92   9 2.92   3 2.92   2 2.92   8 2.93   8 2.93
                             5 2.93   6 2.93   6 2.93   5 2.93
   8  0.333  0.833  0.500-   3 2.92   9 2.92  12 2.92  10 2.92   4 2.92   1 2.92   7 2.93   7 2.93
                             5 2.93   6 2.93   5 2.93   6 2.93
   9  0.000  0.000  0.596-   8 2.92   5 2.92   7 2.92  10 2.93  10 2.93  11 2.93  12 2.93  11 2.93
                            12 2.93
  10  0.500  0.000  0.596-   7 2.92   6 2.92   8 2.92   9 2.93   9 2.93  11 2.93  12 2.93  12 2.93
                            11 2.93
  11  0.000  0.500  0.596-   6 2.92   7 2.92   5 2.92  12 2.93  12 2.93   9 2.93  10 2.93  10 2.93
                             9 2.93
  12  0.500  0.500  0.596-   5 2.92   8 2.92   6 2.92  11 2.93  11 2.93   9 2.93  10 2.93   9 2.93
                            10 2.93

  LATTYP: Found a hexagonal cell.
 ALAT       =     5.8647436409
 C/A-ratio  =     4.2267053170

  Lattice vectors:

 A1 = (   2.9323718200,  -5.0790169800,   0.0000000000)
 A2 = (  -5.8647436400,   0.0000000000,   0.0000000000)
 A3 = (   0.0000000000,   0.0000000000, -24.7885431300)

Analysis of symmetry for initial positions (statically):
 Subroutine PRICEL returns following result:

[...]

   4 primitive cells build up your supercell.

 Routine SETGRP: Setting up the symmetry group for a
 hexagonal supercell.

 Subroutine GETGRP returns: Found 12 space group operations
 (whereof  6 operations were pure point group operations)
 out of a pool of 24 trial point group operations.

The static configuration has the point symmetry C_3v.
 The point group associated with its full space group is D_3d.

Analysis of symmetry for dynamics (positions and initial velocities):
 Subroutine PRICEL returns following result:

  LATTYP: Found a hexagonal cell.
 ALAT       =     2.9323718205
 C/A-ratio  =     8.4534106340

  Lattice vectors:

 A1 = (   1.4661859100,  -2.5395084900,   0.0000000000)
 A2 = (  -2.9323718200,   0.0000000000,   0.0000000000)
 A3 = (   0.0000000000,   0.0000000000, -24.7885431300)

   4 primitive cells build up your supercell.

 Routine SETGRP: Setting up the symmetry group for a
 hexagonal supercell.

 Subroutine GETGRP returns: Found 12 space group operations
 (whereof  6 operations were pure point group operations)
 out of a pool of 24 trial point group operations.

The dynamic configuration has the point symmetry C_3v.
 The point group associated with its full space group is D_3d.

 Subroutine INISYM returns: Found 12 space group operations
 (whereof  6 operations are pure point group operations),
 and found     4 'primitive' translations

 KPOINTS: KPOINTS created by Atomic Simulation Env

Automatic generation of k-mesh.
Space group operators:
 irot       det(A)        alpha          n_x          n_y          n_z        tau_x        tau_y        tau_z
    1     1.000000     0.000000     1.000000     0.000000     0.000000     0.000000     0.000000     0.000000
    2     1.000000   120.000000     0.000000     0.000000     1.000000     0.000000     0.000000     0.000000
    3     1.000000   120.000000     0.000000     0.000000    -1.000000     0.000000     0.000000     0.000000
    4    -1.000000   180.000000     0.500000    -0.866025     0.000000     0.000000     0.000000     0.000000
    5    -1.000000   180.000000     1.000000     0.000000     0.000000     0.000000     0.000000     0.000000
    6    -1.000000   180.000000    -0.500000    -0.866025     0.000000     0.000000     0.000000     0.000000
    7    -1.000000     0.000000     1.000000     0.000000     0.000000     0.166667    -0.333333     0.000000
    8    -1.000000   120.000000     0.000000     0.000000     1.000000     0.166667    -0.333333     0.000000
    9    -1.000000   120.000000     0.000000     0.000000    -1.000000     0.166667    -0.333333     0.000000
   10     1.000000   180.000000     0.500000    -0.866025     0.000000     0.166667    -0.333333     0.000000
   11     1.000000   180.000000     1.000000     0.000000     0.000000     0.166667    -0.333333     0.000000
   12     1.000000   180.000000    -0.500000    -0.866025     0.000000     0.166667    -0.333333     0.000000

 Subroutine IBZKPT returns following result:

 Found     12 irreducible k-points:

 Following reciprocal coordinates:
            Coordinates               Weight
  0.000000  0.000000  0.000000      1.000000
  0.111111  0.000000  0.000000      6.000000
  0.222222 -0.000000  0.000000      6.000000
  0.333333 -0.000000  0.000000      6.000000
  0.444444 -0.000000  0.000000      6.000000
  0.222222  0.111111  0.000000      6.000000
  0.333333  0.111111  0.000000     12.000000
  0.444444  0.111111  0.000000     12.000000
 -0.444444  0.111111  0.000000      6.000000
  0.444444  0.222222  0.000000      6.000000
 -0.444444  0.222222  0.000000     12.000000
 -0.333333  0.333333  0.000000      2.000000

 Following cartesian coordinates:
            Coordinates               Weight
  0.000000  0.000000  0.000000      1.000000
  0.018946 -0.010938  0.000000      6.000000
  0.037891 -0.021876  0.000000      6.000000
  0.056837 -0.032815  0.000000      6.000000
  0.075782 -0.043753  0.000000      6.000000
  0.037891 -0.000000  0.000000      6.000000
  0.056837 -0.010938  0.000000     12.000000
  0.075782 -0.021876  0.000000     12.000000
 -0.075782  0.065629  0.000000      6.000000
  0.075782  0.000000  0.000000      6.000000
 -0.075782  0.087506  0.000000     12.000000
 -0.056837  0.098444  0.000000      2.000000

 I would recommend the setting:
   dimension x,y,z NGX =    29 NGY =   29 NGZ =  121
 SYSTEM =  unknown system
 POSCAR =  Ag

 Startparameter for this run:
   NWRITE =      2    write-flag & timer
   PREC   = normal    normal or accurate (medium, high low for compatibility)
   ISTART =      0    job   : 0-new  1-cont  2-samecut
   ICHARG =      2    charge: 1-file 2-atom 10-const
   ISPIN  =      1    spin polarized calculation?
   LNONCOLLINEAR =      F non collinear calculations
   LSORBIT =      F    spin-orbit coupling
   INIWAV =      1    electr: 0-lowe 1-rand  2-diag
   LASPH  =      F    aspherical Exc in radial PAW
   METAGGA=      F    non-selfconsistent MetaGGA calc.

 Electronic Relaxation 1
   ENCUT  =  400.0 eV  29.40 Ry    5.42 a.u.   9.56  9.56 40.42*2*pi/ulx,y,z
   ENINI  =  400.0     initial cutoff
   ENAUG  =  412.5 eV  augmentation charge cutoff
   NELM   =     60;   NELMIN=  2; NELMDL= -5     # of ELM steps
   EDIFF  = 0.1E-03   stopping-criterion for ELM
   LREAL  =      F    real-space projection
   NLSPLINE    = F    spline interpolate recip. space projectors
   LCOMPAT=      F    compatible to vasp.4.4
   GGA_COMPAT  = T    GGA compatible to vasp.4.4-vasp.4.6
   LMAXPAW     = -100 max onsite density
   LMAXMIX     =    2 max onsite mixed and CHGCAR
   VOSKOWN=      0    Vosko Wilk Nusair interpolation
   ROPT   =    0.00000
 Ionic relaxation
   EDIFFG = 0.1E-02   stopping-criterion for IOM
   NSW    =      0    number of steps for IOM
   NBLOCK =      1;   KBLOCK =      1    inner block; outer block
   IBRION =     -1    ionic relax: 0-MD 1-quasi-New 2-CG
   NFREE  =      0    steps in history (QN), initial steepest desc. (CG)
   ISIF   =      2    stress and relaxation
   IWAVPR =     10    prediction:  0-non 1-charg 2-wave 3-comb
   ISYM   =      2    0-nonsym 1-usesym 2-fastsym
   LCORR  =      T    Harris-Foulkes like correction to forces

   POTIM  = 0.5000    time-step for ionic-motion
   TEIN   =    0.0    initial temperature
   TEBEG  =    0.0;   TEEND  =   0.0 temperature during run
   SMASS  =  -3.00    Nose mass-parameter (am)
   estimated Nose-frequenzy (Omega)   =  0.10E-29 period in steps =****** mass=  -0.786E-27a.u.
   SCALEE = 1.0000    scale energy and forces
   NPACO  =    256;   APACO  = 16.0  distance and # of slots for P.C.
   PSTRESS=    0.0 pullay stress

  Mass of Ions in am
   POMASS = 107.87
  Ionic Valenz
   ZVAL   =  11.00
  Atomic Wigner-Seitz radii
  virtual crystal weights
   VCA    =   1.00
   NELECT =     132.0000    total number of electrons
   NUPDOWN=      -1.0000    fix difference up-down

 DOS related values:
   EMIN   =  10.00;   EMAX   =-10.00  energy-range for DOS
   EFERMI =   0.00
   ISMEAR =     1;   SIGMA  =   0.10  broadening in eV -4-tet -1-fermi 0-gaus

 Electronic relaxation 2 (details)
   IALGO  =     38    algorithm
   LDIAG  =      T    sub-space diagonalisation (order eigenvalues)
   LSUBROT=      F    optimize rotation matrix (better conditioning)
   TURBO    =      0    0=normal 1=particle mesh
   IRESTART =      0    0=no restart 2=restart with 2 vectors
   NREBOOT  =      0    no. of reboots
   NMIN     =      0    reboot dimension
   EREF     =   0.00    reference energy to select bands
   IMIX   =      4    mixing-type and parameters
     AMIX     =   0.40;   BMIX     =  1.00
     AMIX_MAG =   1.60;   BMIX_MAG =  1.00
     AMIN     =   0.10
     WC   =   100.;   INIMIX=   1;  MIXPRE=   1;  MAXMIX= -45

 Intra band minimization:
   WEIMIN = 0.0000     energy-eigenvalue tresh-hold
   EBREAK =  0.26E-06  absolut break condition
   DEPER  =   0.30     relativ break condition

   TIME   =   0.40     timestep for ELM

  volume/ion in A,a.u.               =      61.53       415.24
  Fermi-wavevector in a.u.,A,eV,Ry     =   0.922231  1.742763 11.571884  0.850509
  Thomas-Fermi vector in A             =   2.047735

 Write flags
   LWAVE  =      F    write WAVECAR
   LCHARG =      F    write CHGCAR
   LVTOT  =      F    write LOCPOT, total local potential
   LVHAR  =      F    write LOCPOT, Hartree potential only
   LELF   =      F    write electronic localiz. function (ELF)
   LORBIT =     10    0 simple, 1 ext, 2 COOP (PROOUT)

[...]
   4.39855773  2.53950849 14.77426074

 k-point  1 :   0.0000 0.0000 0.0000  plane waves:   13497
 k-point  2 :   0.1111 0.0000 0.0000  plane waves:   13483
 k-point  3 :   0.2222-0.0000 0.0000  plane waves:   13439
 k-point  4 :   0.3333-0.0000 0.0000  plane waves:   13402
 k-point  5 :   0.4444-0.0000 0.0000  plane waves:   13372
 k-point  6 :   0.2222 0.1111 0.0000  plane waves:   13449
 k-point  7 :   0.3333 0.1111 0.0000  plane waves:   13414
 k-point  8 :   0.4444 0.1111 0.0000  plane waves:   13388
 k-point  9 :  -0.4444 0.1111 0.0000  plane waves:   13372
 k-point 10 :   0.4444 0.2222 0.0000  plane waves:   13410
 k-point 11 :  -0.4444 0.2222 0.0000  plane waves:   13394
 k-point 12 :  -0.3333 0.3333 0.0000  plane waves:   13428

 maximum and minimum number of plane-waves per node :     13497    13372

 maximum number of plane-waves:     13497
 maximum index in each direction:
   IXMAX=   10   IYMAX=    9   IZMAX=   40
   IXMIN=  -10   IYMIN=   -9   IZMIN=  -40

 WARNING: aliasing errors must be expected set NGX to  42 to avoid them
 WARNING: aliasing errors must be expected set NGY to  38 to avoid them
 WARNING: aliasing errors must be expected set NGZ to 162 to avoid them
 aliasing errors are usually negligible using standard VASP settings
 and one can safely disregard these warnings

 serial   3D FFT for wavefunctions
 parallel 3D FFT for charge:
    minimum data exchange during FFTs selected (reduces bandwidth)

 Broyden mixing: mesh for mixing (old mesh)
   NGX = 19   NGY = 19   NGZ = 81
  (NGX  = 60   NGY  = 60   NGZ  =252)
  gives a total of  29241 points

 initial charge density was supplied:
 charge density of overlapping atoms calculated
 number of electron     132.0000000 magnetization
 keeping initial charge density in first step

 Maximum index for augmentation-charges          582 (set IRDMAX)

 First call to EWALD:  gamma=   0.196
 Maximum number of real-space cells 5x 5x 1
 Maximum number of reciprocal cells 2x 2x 7

 FEWALD executed in parallel

----------------------------------------- Iteration    1(   1)  ---------------------------------------

 eigenvalue-minimisations  :  2304
 total energy-change (2. order) : 0.6770595E+03  (-0.4995808E+04)
 number of electron     132.0000000 magnetization
 augmentation part      132.0000000 magnetization

 Free energy of the ion-electron system (eV)
  alpha Z        PSCENC =       165.88112498
  Ewald energy   TEWEN  =     46346.47699606
  -Hartree energ DENC   =    -58813.98482815
  -exchange      EXHF   =         0.00000000
  -V(xc)+E(xc)   XCENC  =      -129.38405519
  PAW double counting   =     12041.54579192   -11488.19129077
  entropy T*S    EENTRO =        -0.00052149
  eigenvalues    EBANDS =       107.61510848
  atomic energy  EATOM  =     12447.10114051
  Solvation  Ediel_sol  =         0.00000000
  free energy    TOTEN  =       677.05946635 eV

  energy without entropy =      677.05998785  energy(sigma->0) =      677.05964018

[...]

 eigenvalue-minimisations  :  2592
 total energy-change (2. order) :-0.6894318E+03  (-0.6560010E+03)
 number of electron     132.0000000 magnetization
 augmentation part      132.0000000 magnetization

[...]

 Broyden mixing:
  rms(total) = 0.13930E+01    rms(broyden)= 0.13930E+01
  rms(prec ) = 0.14352E+01
  weight for this iteration     100.00

[...]

 eigenvalues of (default mixing * dielectric matrix)
  average eigenvalue GAMMA=   1.1674
  1.1674

[...]

 eigenvalue-minimisations  :  2064
 total energy-change (2. order) : 0.2059796E-03  (-0.1491912E-04)
 number of electron     132.0000371 magnetization
 augmentation part       63.2324972 magnetization

 Broyden mixing:
  rms(total) = 0.17861E-02    rms(broyden)= 0.17860E-02
  rms(prec ) = 0.28916E-02
  weight for this iteration     100.00

 eigenvalues of (default mixing * dielectric matrix)
  average eigenvalue GAMMA=   1.5505
  2.7800  2.4969  1.1209  1.0455  1.0455  0.8141

[...]

----------------------------------------- Iteration    1(  12)  ---------------------------------------

 eigenvalue-minimisations  :  2016
 total energy-change (2. order) :-0.6031629E-04  (-0.2461525E-05)
 number of electron     132.0000371 magnetization
 augmentation part       63.2324972 magnetization

 Free energy of the ion-electron system (eV)
  alpha Z        PSCENC =       165.88112498
  Ewald energy   TEWEN  =     46346.47699606
  -Hartree energ DENC   =    -58728.04779015
  -exchange      EXHF   =         0.00000000
  -V(xc)+E(xc)   XCENC  =      -134.06966355
  PAW double counting   =     13074.08092559   -12545.74404774
  entropy T*S    EENTRO =        -0.00643057
  eigenvalues    EBANDS =      -655.48026401
  atomic energy  EATOM  =     12447.10114051
  Solvation  Ediel_sol  =         0.00000000
  free energy    TOTEN  =       -29.80800888 eV

  energy without entropy =      -29.80157831  energy(sigma->0) =      -29.80586535

 average (electrostatic) potential at core
  the test charge radii are     1.1249
  (the norm of the test charge is              1.0000)
       1 -79.8186       2 -79.8186       3 -79.8186       4 -79.8186       5 -79.9989
       6 -79.9989       7 -79.9989       8 -79.9989       9 -79.8186      10 -79.8186
      11 -79.8186      12 -79.8186

 E-fermi :  -0.9099     XC(G=0):  -4.2238     alpha+bet : -3.7304

 k-point     1 :       0.0000    0.0000    0.0000
  band No.  band energies     occupation
      1      -7.8001      2.00000
      2      -6.8742      2.00000
      3      -6.8453      2.00000
      4      -6.8453      2.00000
      5      -6.8453      2.00000
      6      -6.7642      2.00000
      7      -6.7080      2.00000
      8      -6.7080      2.00000
      9      -6.7080      2.00000
     10      -6.6041      2.00000
     11      -6.6041      2.00000
     12      -6.6041      2.00000
     13      -6.4143      2.00000
     14      -6.4143      2.00000
     15      -6.4143      2.00000
     16      -5.7558      2.00000
     17      -5.7558      2.00000
     18      -5.7558      2.00000
     19      -5.6002      2.00000
     20      -5.6002      2.00000
     21      -5.6002      2.00000
     22      -5.5222      2.00000
     23      -5.4877      2.00000
     24      -5.4877      2.00000
     25      -5.3456      2.00000
     26      -5.3456      2.00000
     27      -5.2917      2.00000
     28      -5.2917      2.00000
     29      -5.2917      2.00000
     30      -5.2203      2.00000
     31      -5.2203      2.00000
     32      -4.8559      2.00000
     33      -4.7251      2.00000
     34      -4.7251      2.00000
     35      -4.7251      2.00000
     36      -4.5612      2.00000
     37      -4.5612      2.00000
     38      -4.5608      2.00000
     39      -4.5608      2.00000
     40      -4.5608      2.00000
     41      -4.2993      2.00000
     42      -4.2993      2.00000
     43      -4.2993      2.00000
     44      -4.2839      2.00000
     45      -4.2839      2.00000
     46      -4.0076      2.00000
     47      -4.0076      2.00000
     48      -4.0076      2.00000
     49      -3.9467      2.00000
     50      -3.9467      2.00000
     51      -3.9217      2.00000
     52      -3.9217      2.00000
     53      -3.9217      2.00000
     54      -3.8256      2.00000
     55      -3.8256      2.00000
     56      -3.8256      2.00000
     57      -3.6702      2.00000
     58      -3.6702      2.00000
     59      -3.6702      2.00000
     60      -3.6428      2.00000
[...]
     82       3.8669      0.00000
     83       4.6053      0.00000
     84       4.6053      0.00000
     85       4.6053      0.00000
     86       4.8227      0.00000
     87       5.0760      0.00000
     88       6.9016      0.00000
     89       6.9473      0.00000
     90       7.0245      0.00000
     91       7.0245      0.00000
     92       7.0245      0.00000
     93       7.4388      0.00000
     94       7.4388      0.00000
     95       7.4388      0.00000
     96       8.4389      0.00000

[...]

 k-point    12 :      -0.3333    0.3333    0.0000
  band No.  band energies     occupation
      1      -6.3847      2.00000
      2      -6.3847      2.00000
      3      -6.3847      2.00000
      4      -6.1847      2.00000
      5      -6.1847      2.00000
      6      -6.1517      2.00000
      7      -6.1391      2.00000
      8      -6.1391      2.00000
      9      -6.1391      2.00000
     10      -6.0665      2.00000
     11      -6.0665      2.00000
     12      -6.0665      2.00000
     13      -6.0576      2.00000
     14      -6.0576      2.00000
     15      -6.0576      2.00000
     16      -5.7676      2.00000
     17      -5.7676      2.00000
     18      -5.5768      2.00000
     19      -5.5768      2.00000
     20      -5.5768      2.00000
     21      -5.5709      2.00000
     22      -5.5709      2.00000
     23      -5.5709      2.00000
     24      -5.3966      2.00000
     25      -5.3966      2.00000
     26      -5.3966      2.00000
     27      -5.3647      2.00000
     28      -5.3647      2.00000
     29      -5.3647      2.00000
     30      -5.3391      2.00000
     31      -5.1269      2.00000
     32      -5.1210      2.00000
     33      -5.1156      2.00000
     34      -5.1156      2.00000
     35      -5.0777      2.00000
     36      -5.0777      2.00000
     37      -5.0777      2.00000
     38      -5.0345      2.00000
     39      -5.0345      2.00000
     40      -5.0345      2.00000
     41      -4.6607      2.00000
     42      -4.6607      2.00000
     43      -4.6607      2.00000
     44      -4.5830      2.00000
     45      -4.5830      2.00000
     46      -4.5026      2.00000
     47      -4.5026      2.00000
     48      -4.5026      2.00000
     49      -4.3222      2.00000
     50      -4.3222      2.00000
     51      -4.3222      2.00000
     52      -4.1382      2.00000
     53      -4.1382      2.00000
     54      -4.1382      2.00000
     55      -4.0937      2.00000
     56      -4.0937      2.00000
     57      -3.9941      2.00000
     58      -3.9941      2.00000
     59      -3.9941      2.00000
     60      -3.9749      2.00000
[...]
     82       5.3071      0.00000
     83       5.3071      0.00000
     84       5.3071      0.00000
     85       5.7048      0.00000
     86       5.7048      0.00000
     87       5.7048      0.00000
     88       5.9107      0.00000
     89       5.9107      0.00000
     90       6.7966      0.00000
     91       6.7966      0.00000
     92       6.7966      0.00000
     93       6.8407      0.00000
     94       6.8407      0.00000
     95       6.8407      0.00000
     96       6.9509      0.00000

 soft charge-density along one line, spin component           1
         0         1         2         3         4         5         6         7         8         9
 total charge-density along one line

------------------------ aborting loop because EDIFF is reached ----------------------------------------

 total charge

# of ion     s       p       d       tot
  1        0.414   0.203   9.180   9.797
  2        0.414   0.203   9.180   9.797
  3        0.414   0.203   9.180   9.797
  4        0.414   0.203   9.180   9.797
  5        0.406   0.263   9.172   9.841
  6        0.406   0.263   9.172   9.841
  7        0.406   0.263   9.172   9.841
  8        0.406   0.263   9.172   9.841
  9        0.414   0.203   9.180   9.797
 10        0.414   0.203   9.180   9.797
 11        0.414   0.203   9.180   9.797
 12        0.414   0.203   9.180   9.797
tot        4.938   2.676 110.128 117.742

  FORCE on cell =-STRESS in cart. coord.  units (eV):
  Direction    XX          YY          ZZ          XY          YZ          ZX
  Alpha Z   165.88112   165.88112   165.88112
  Ewald   53990.53272 53990.53272-61634.60064     0.00000     0.00000     0.00000
  Hartree 57115.60456 57115.60456-55498.52542     0.00000     0.00000     0.00000
  E(xc)    -695.32936  -695.32934  -697.88246    -0.00002    -0.00000    -0.00000
  Local  ************************115025.98511     0.00061    -0.00000    -0.00000
  n-local  -103.90281  -123.17110  -115.87593    -9.25373     0.17881    -0.32428
  augment  1103.01410  1103.01470  1107.76815    -0.00052     0.00000     0.00001
  Kinetic  1632.20116  1634.56674  1646.38079     1.81045    -0.34191     0.52054
  Fock        0.00000     0.00000     0.00000     0.00000     0.00000     0.00000
  Total      -3.72537    -3.72537    -0.86928     0.00000     0.00000     0.00000
  in kB      -8.08352    -8.08352    -1.88621     0.00000     0.00000     0.00000

 VOLUME and BASIS-vectors are now :
  energy-cutoff  :      400.00
  volume of cell :      738.38
      direct lattice vectors                 reciprocal lattice vectors
     5.864743640  0.000000000  0.000000000     0.170510437 -0.098444247  0.000000000
     2.932371820  5.079016980  0.000000000     0.000000000  0.196888493  0.000000000
     0.000000000  0.000000000 24.788543130     0.000000000  0.000000000  0.040341217

  length of vectors
     5.864743640  5.864743641 24.788543130     0.196888493  0.196888493  0.040341217

 FORCES acting on ions
    electron-ion (+dipol)            ewald-force                    non-local-force                 convergence-correction
   -.809E-05 -.466E-05 0.208E+04   -.852E-06 -.499E-06 -.208E+04   -.434E-17 -.113E-16 -.163E+01   -.882E-08 -.510E-08 -.497E-01
   -.809E-05 -.466E-05 0.208E+04   -.852E-06 -.499E-06 -.208E+04   -.499E-17 0.000E+00 -.163E+01   -.882E-08 -.510E-08 -.497E-01
   -.809E-05 -.466E-05 0.208E+04   -.852E-06 -.499E-06 -.208E+04   -.347E-17 -.694E-17 -.163E+01   -.882E-08 -.510E-08 -.497E-01
   -.809E-05 -.466E-05 0.208E+04   -.852E-06 -.499E-06 -.208E+04   -.347E-17 -.260E-17 -.163E+01   -.882E-08 -.510E-08 -.497E-01
   0.746E-05 0.431E-05 -.659E-06   0.128E-05 0.737E-06 -.341E-12   0.165E-22 -.265E-22 -.112E-21   0.750E-08 0.433E-08 -.716E-09
   0.746E-05 0.431E-05 -.660E-06   0.128E-05 0.737E-06 -.227E-12   -.364E-22 0.662E-23 0.000E+00   0.750E-08 0.433E-08 -.716E-09
   0.746E-05 0.431E-05 -.659E-06   0.128E-05 0.737E-06 -.483E-12   0.215E-22 -.331E-23 -.199E-22   0.750E-08 0.433E-08 -.716E-09
   0.746E-05 0.431E-05 -.660E-06   0.128E-05 0.737E-06 -.284E-12   -.232E-22 0.199E-22 0.529E-22   0.750E-08 0.433E-08 -.716E-09
   0.329E-06 0.184E-06 -.208E+04   -.424E-06 -.237E-06 0.208E+04   0.260E-17 0.260E-17 0.163E+01   0.673E-09 0.391E-09 0.497E-01
   0.329E-06 0.184E-06 -.208E+04   -.424E-06 -.237E-06 0.208E+04   0.520E-17 0.694E-17 0.163E+01   0.673E-09 0.391E-09 0.497E-01
   0.329E-06 0.184E-06 -.208E+04   -.424E-06 -.237E-06 0.208E+04   0.152E-17 0.694E-17 0.163E+01   0.673E-09 0.391E-09 0.497E-01
   0.329E-06 0.184E-06 -.208E+04   -.424E-06 -.237E-06 0.208E+04   0.607E-17 0.260E-17 0.163E+01   0.673E-09 0.391E-09 0.497E-01
   -.119E-05 -.686E-06 -.625E-05   0.111E-13 -.129E-14 0.000E+00   -.867E-18 -.173E-17 -.155E-14   -.260E-08 -.150E-08 -.611E-08

 POSITION                                       TOTAL-FORCE (eV/Angst)
      1.46619      0.84650     10.01428        -0.000000      0.000000      0.024769
      4.39856      0.84650     10.01428         0.000000      0.000000      0.024769
      2.93237      3.38601     10.01428        -0.000000      0.000000      0.024769
      5.86474      3.38601     10.01428         0.000000      0.000000      0.024769
      5.86474      1.69301     12.39427        -0.000000      0.000000      0.000000
      2.93237      1.69301     12.39427         0.000000     -0.000000      0.000000
      7.33093      4.23251     12.39427        -0.000000     -0.000000      0.000000
      4.39856      4.23251     12.39427         0.000000     -0.000000      0.000000
      0.00000      0.00000     14.77426         0.000000      0.000000     -0.024769
      2.93237      0.00000     14.77426        -0.000000      0.000000     -0.024769
      1.46619      2.53951     14.77426         0.000000      0.000000     -0.024769
      4.39856      2.53951     14.77426        -0.000000      0.000000     -0.024769
    total drift:                               -0.000001     -0.000001     -0.000006

  FREE ENERGIE OF THE ION-ELECTRON SYSTEM (eV)
  free  energy   TOTEN  =       -29.80800888 eV

  energy  without entropy=      -29.80157831  energy(sigma->0) =      -29.80586535

 total charge

# of ion     s       p       d       tot
  1        0.414   0.203   9.180   9.797
  2        0.414   0.203   9.180   9.797
  3        0.414   0.203   9.180   9.797
  4        0.414   0.203   9.180   9.797
  5        0.406   0.263   9.172   9.841
  6        0.406   0.263   9.172   9.841
  7        0.406   0.263   9.172   9.841
  8        0.406   0.263   9.172   9.841
  9        0.414   0.203   9.180   9.797
 10        0.414   0.203   9.180   9.797
 11        0.414   0.203   9.180   9.797
 12        0.414   0.203   9.180   9.797
tot        4.938   2.676 110.128 117.742