 vasp.5.4.1 05Feb16 (build Feb 08 2018 09:21:51) complex

 executed on             LinuxIFC date 2019.11.21  23:19:13

 INCAR:
 POTCAR:    PAW_PBE Au 04Oct2007

 POTCAR:    PAW_PBE Au 04Oct2007
   VRHFIN =Au: s1d10

   TITEL  = PAW_PBE Au 04Oct2007
   POMASS =  196.966; ZVAL   =   11.000    mass and valenz
   ENMAX  =  229.943; ENMIN  =  172.457 eV

  PAW_PBE Au 04Oct2007                  :

 POSCAR: Au
  positions in cartesian coordinates
 exchange correlation table for  LEXCH =        8
   RHO(1)=    0.500       N(1)  =     2000
   RHO(2)=  100.500       N(2)  =     4000

 ion  position               nearest neighbor table
   1  0.167  0.167  0.403-   8 2.94   5 2.94   3 2.94   3 2.94   4 2.94   4 2.94   2 2.94   2 2.94
                             6 2.94
   2  0.667  0.167  0.403-   7 2.94   6 2.94   4 2.94   3 2.94   4 2.94   3 2.94   1 2.94   1 2.94
                             5 2.94
   3  0.167  0.667  0.403-   6 2.94   7 2.94   1 2.94   1 2.94   2 2.94   2 2.94   4 2.94   4 2.94
                             8 2.94
   4  0.667  0.667  0.403-   5 2.94   8 2.94   2 2.94   1 2.94   2 2.94   1 2.94   3 2.94   3 2.94
                             7 2.94
   5  0.833  0.333  0.500-   4 2.94   1 2.94  11 2.94   9 2.94  12 2.94   7 2.94   7 2.94   8 2.94
                             8 2.94   6 2.94   6 2.94   2 2.94
   6  0.333  0.333  0.500-   3 2.94   2 2.94  12 2.94  11 2.94  10 2.94   8 2.94   7 2.94   8 2.94
                             7 2.94   5 2.94   5 2.94   1 2.94
   7  0.833  0.833  0.500-   2 2.94   3 2.94   9 2.94  10 2.94  11 2.94   5 2.94   5 2.94   6 2.94
                             6 2.94   8 2.94   8 2.94   4 2.94
   8  0.333  0.833  0.500-   1 2.94   4 2.94  10 2.94   9 2.94  12 2.94   6 2.94   5 2.94   6 2.94
                             5 2.94   7 2.94   7 2.94   3 2.94
   9  0.000  0.000  0.597-   7 2.94   5 2.94   8 2.94  11 2.94  11 2.94  12 2.94  12 2.94  10 2.94
                            10 2.94
  10  0.500  0.000  0.597-   8 2.94   7 2.94   6 2.94  12 2.94  11 2.94  12 2.94  11 2.94   9 2.94
                             9 2.94
  11  0.000  0.500  0.597-   5 2.94   6 2.94   7 2.94   9 2.94   9 2.94  10 2.94  10 2.94  12 2.94
                            12 2.94
  12  0.500  0.500  0.597-   6 2.94   5 2.94   8 2.94  10 2.94   9 2.94  10 2.94   9 2.94  11 2.94
                            11 2.94

  LATTYP: Found a hexagonal cell.
 ALAT       =     5.8802999923
 C/A-ratio  =     4.2176835996

  Lattice vectors:

 A1 = (   2.9401499962,  -5.0924891752,   0.0000000000)
 A2 = (  -5.8802999923,   0.0000000000,   0.0000000000)
 A3 = (   0.0000000000,   0.0000000000, -24.8012448386)

Analysis of symmetry for initial positions (statically):
 Subroutine PRICEL returns following result:

[...]

   4 primitive cells build up your supercell.

 Routine SETGRP: Setting up the symmetry group for a
 hexagonal supercell.

 Subroutine GETGRP returns: Found 12 space group operations
 (whereof  6 operations were pure point group operations)
 out of a pool of 24 trial point group operations.

The static configuration has the point symmetry C_3v.
 The point group associated with its full space group is D_3d.

Analysis of symmetry for dynamics (positions and initial velocities):
 Subroutine PRICEL returns following result:

  LATTYP: Found a hexagonal cell.
 ALAT       =     2.9401499962
 C/A-ratio  =     8.4353671992

  Lattice vectors:

 A1 = (   1.4700749981,  -2.5462445876,   0.0000000000)
 A2 = (  -2.9401499962,   0.0000000000,   0.0000000000)
 A3 = (   0.0000000000,   0.0000000000, -24.8012448386)

   4 primitive cells build up your supercell.

 Routine SETGRP: Setting up the symmetry group for a
 hexagonal supercell.

 Subroutine GETGRP returns: Found 12 space group operations
 (whereof  6 operations were pure point group operations)
 out of a pool of 24 trial point group operations.

The dynamic configuration has the point symmetry C_3v.
 The point group associated with its full space group is D_3d.

 Subroutine INISYM returns: Found 12 space group operations
 (whereof  6 operations are pure point group operations),
 and found     4 'primitive' translations

 KPOINTS: KPOINTS created by Atomic Simulation Env

Automatic generation of k-mesh.
Space group operators:
 irot       det(A)        alpha          n_x          n_y          n_z        tau_x        tau_y        tau_z
    1     1.000000     0.000000     1.000000     0.000000     0.000000     0.000000     0.000000     0.000000
    2     1.000000   120.000000     0.000000     0.000000     1.000000     0.000000     0.000000     0.000000
    3     1.000000   120.000000     0.000000     0.000000    -1.000000     0.000000     0.000000     0.000000
    4    -1.000000   180.000000     0.500000    -0.866025     0.000000     0.000000     0.000000     0.000000
    5    -1.000000   180.000000     1.000000     0.000000     0.000000     0.000000     0.000000     0.000000
    6    -1.000000   180.000000    -0.500000    -0.866025     0.000000     0.000000     0.000000     0.000000
    7    -1.000000     0.000000     1.000000     0.000000     0.000000     0.166667    -0.333333     0.000000
    8    -1.000000   120.000000     0.000000     0.000000     1.000000     0.166667    -0.333333     0.000000
    9    -1.000000   120.000000     0.000000     0.000000    -1.000000     0.166667    -0.333333     0.000000
   10     1.000000   180.000000     0.500000    -0.866025     0.000000     0.166667    -0.333333     0.000000
   11     1.000000   180.000000     1.000000     0.000000     0.000000     0.166667    -0.333333     0.000000
   12     1.000000   180.000000    -0.500000    -0.866025     0.000000     0.166667    -0.333333     0.000000

 Subroutine IBZKPT returns following result:

 Found     12 irreducible k-points:

 Following reciprocal coordinates:
            Coordinates               Weight
  0.000000  0.000000  0.000000      1.000000
  0.111111  0.000000  0.000000      6.000000
  0.222222 -0.000000  0.000000      6.000000
  0.333333  0.000000  0.000000      6.000000
  0.444444 -0.000000  0.000000      6.000000
  0.222222  0.111111  0.000000      6.000000
  0.333333  0.111111  0.000000     12.000000
  0.444444  0.111111  0.000000     12.000000
 -0.444444  0.111111  0.000000      6.000000
  0.444444  0.222222  0.000000      6.000000
 -0.444444  0.222222  0.000000     12.000000
 -0.333333  0.333333  0.000000      2.000000

 Following cartesian coordinates:
            Coordinates               Weight
  0.000000  0.000000  0.000000      1.000000
  0.018895 -0.010909  0.000000      6.000000
  0.037791 -0.021819  0.000000      6.000000
  0.056686 -0.032728  0.000000      6.000000
  0.075582 -0.043637  0.000000      6.000000
  0.037791 -0.000000  0.000000      6.000000
  0.056686 -0.010909  0.000000     12.000000
  0.075582 -0.021819  0.000000     12.000000
 -0.075582  0.065456  0.000000      6.000000
  0.075582  0.000000  0.000000      6.000000
 -0.075582  0.087274  0.000000     12.000000
 -0.056686  0.098184  0.000000      2.000000

 I would recommend the setting:
   dimension x,y,z NGX =    29 NGY =   29 NGZ =  121
 SYSTEM =  unknown system
 POSCAR =  Au

 Startparameter for this run:
   NWRITE =      2    write-flag & timer
   PREC   = normal    normal or accurate (medium, high low for compatibility)
   ISTART =      0    job   : 0-new  1-cont  2-samecut
   ICHARG =      2    charge: 1-file 2-atom 10-const
   ISPIN  =      1    spin polarized calculation?
   LNONCOLLINEAR =      F non collinear calculations
   LSORBIT =      F    spin-orbit coupling
   INIWAV =      1    electr: 0-lowe 1-rand  2-diag
   LASPH  =      F    aspherical Exc in radial PAW
   METAGGA=      F    non-selfconsistent MetaGGA calc.

 Electronic Relaxation 1
   ENCUT  =  400.0 eV  29.40 Ry    5.42 a.u.   9.59  9.59 40.44*2*pi/ulx,y,z
   ENINI  =  400.0     initial cutoff
   ENAUG  =  356.7 eV  augmentation charge cutoff
   NELM   =     60;   NELMIN=  2; NELMDL= -5     # of ELM steps
   EDIFF  = 0.1E-03   stopping-criterion for ELM
   LREAL  =      F    real-space projection
   NLSPLINE    = F    spline interpolate recip. space projectors
   LCOMPAT=      F    compatible to vasp.4.4
   GGA_COMPAT  = T    GGA compatible to vasp.4.4-vasp.4.6
   LMAXPAW     = -100 max onsite density
   LMAXMIX     =    2 max onsite mixed and CHGCAR
   VOSKOWN=      0    Vosko Wilk Nusair interpolation
   ROPT   =    0.00000
 Ionic relaxation
   EDIFFG = 0.1E-02   stopping-criterion for IOM
   NSW    =     20    number of steps for IOM
   NBLOCK =      1;   KBLOCK =     20    inner block; outer block
   IBRION =      2    ionic relax: 0-MD 1-quasi-New 2-CG
   NFREE  =      1    steps in history (QN), initial steepest desc. (CG)
   ISIF   =      2    stress and relaxation
   IWAVPR =     11    prediction:  0-non 1-charg 2-wave 3-comb
   ISYM   =      2    0-nonsym 1-usesym 2-fastsym
   LCORR  =      T    Harris-Foulkes like correction to forces

   POTIM  = 0.5000    time-step for ionic-motion
   TEIN   =    0.0    initial temperature
   TEBEG  =    0.0;   TEEND  =   0.0 temperature during run
   SMASS  =  -3.00    Nose mass-parameter (am)
   estimated Nose-frequenzy (Omega)   =  0.10E-29 period in steps =****** mass=  -0.790E-27a.u.
   SCALEE = 1.0000    scale energy and forces
   NPACO  =    256;   APACO  = 16.0  distance and # of slots for P.C.
   PSTRESS=    0.0 pullay stress

  Mass of Ions in am
   POMASS = 196.97
  Ionic Valenz
   ZVAL   =  11.00
  Atomic Wigner-Seitz radii
  virtual crystal weights
   VCA    =   1.00
   NELECT =     132.0000    total number of electrons
   NUPDOWN=      -1.0000    fix difference up-down

 DOS related values:
   EMIN   =  10.00;   EMAX   =-10.00  energy-range for DOS
   EFERMI =   0.00
   ISMEAR =     1;   SIGMA  =   0.10  broadening in eV -4-tet -1-fermi 0-gaus

 Electronic relaxation 2 (details)
   IALGO  =     38    algorithm
   LDIAG  =      T    sub-space diagonalisation (order eigenvalues)
   LSUBROT=      F    optimize rotation matrix (better conditioning)
   TURBO    =      0    0=normal 1=particle mesh
   IRESTART =      0    0=no restart 2=restart with 2 vectors
   NREBOOT  =      0    no. of reboots
   NMIN     =      0    reboot dimension
   EREF     =   0.00    reference energy to select bands
   IMIX   =      4    mixing-type and parameters
     AMIX     =   0.40;   BMIX     =  1.00
     AMIX_MAG =   1.60;   BMIX_MAG =  1.00
     AMIN     =   0.10
     WC   =   100.;   INIMIX=   1;  MIXPRE=   1;  MAXMIX= -45

 Intra band minimization:
   WEIMIN = 0.0010     energy-eigenvalue tresh-hold
   EBREAK =  0.26E-06  absolut break condition
   DEPER  =   0.30     relativ break condition

   TIME   =   0.40     timestep for ELM

  volume/ion in A,a.u.               =      61.89       417.66
  Fermi-wavevector in a.u.,A,eV,Ry     =   0.920446  1.739391 11.527146  0.847221
  Thomas-Fermi vector in A             =   2.045753

 Write flags
   LWAVE  =      F    write WAVECAR
   LCHARG =      F    write CHGCAR
   LVTOT  =      F    write LOCPOT, total local potential
   LVHAR  =      F    write LOCPOT, Hartree potential only
   LELF   =      F    write electronic localiz. function (ELF)
   LORBIT =      0    0 simple, 1 ext, 2 COOP (PROOUT)

[...]
     45      -3.6230      2.00000
     46      -3.2805      2.00000
     47      -3.2805      2.00000
     48      -3.2805      2.00000
     49      -3.1732      2.00000
     50      -3.1732      2.00000
     51      -3.1711      2.00000
     52      -3.1711      2.00000
     53      -3.1711      2.00000
     54      -3.0633      2.00000
     55      -3.0633      2.00000
     56      -3.0633      2.00000
     57      -2.7394      2.00000
     58      -2.7394      2.00000
     59      -2.7394      2.00000
     60      -2.7084      2.00000
[...]
     82       3.6626      0.00000
     83       3.6626      0.00000
     84       3.9784      0.00000
     85       4.0607      0.00000
     86       5.2481      0.00000
     87       5.4616      0.00000
     88       7.0010      0.00000
     89       7.0010      0.00000
     90       7.0010      0.00000
     91       7.1632      0.00000
     92       7.4326      0.00000
     93       7.5836      0.00000
     94       7.5836      0.00000
     95       7.5836      0.00000
     96       8.7685      0.00000

[...]

 soft charge-density along one line, spin component           1
         0         1         2         3         4         5         6         7         8         9
 total charge-density along one line

------------------------ aborting loop because EDIFF is reached ----------------------------------------

  FORCE on cell =-STRESS in cart. coord.  units (eV):
  Direction    XX          YY          ZZ          XY          YZ          ZX
  Alpha Z   225.84439   225.84439   225.84439
  Ewald   53391.55026 53391.55026-61011.49531    -0.00000    -0.00000    -0.00000
  Hartree 55933.77625 55933.77625-54939.35616    -0.00000    -0.00000    -0.00000
  E(xc)    -591.54945  -591.54943  -594.90970    -0.00002     0.00000     0.00000
  Local  ************************113658.54125     0.00096    -0.00000    -0.00000
  n-local    -2.97704   -47.09117   -11.35461   -22.39944    -0.77507     0.46379
  augment   810.51869   810.51951   818.01121    -0.00071    -0.00000    -0.00000
  Kinetic  1824.61764  1835.18256  1855.56312     4.55556    -0.41971     0.45434
  Fock        0.00000     0.00000     0.00000     0.00000     0.00000     0.00000
  Total     -10.18219   -10.18219     0.84419     0.00000     0.00000     0.00000
  in kB     -21.96589   -21.96589     1.82116     0.00000     0.00000     0.00000

 VOLUME and BASIS-vectors are now :
  energy-cutoff  :      400.00
  volume of cell :      742.68
      direct lattice vectors                 reciprocal lattice vectors
     5.880299992  0.000000000  0.000000000     0.170059351 -0.098183812  0.000000000
     2.940149996  5.092489175  0.000000000     0.000000000  0.196367624  0.000000000
     0.000000000  0.000000000 24.801244839     0.000000000  0.000000000  0.040320557

[...]

 FORCES acting on ions
    electron-ion (+dipol)            ewald-force                    non-local-force                 convergence-correction
   0.637E-07 0.368E-07 0.206E+04   0.231E-11 0.138E-11 -.206E+04   -.450E-17 0.152E-17 -.280E+00   -.109E-08 -.628E-09 0.188E-02
   0.637E-07 0.368E-07 0.206E+04   0.231E-11 0.139E-11 -.206E+04   -.591E-17 -.423E-17 -.280E+00   -.109E-08 -.628E-09 0.188E-02
   0.637E-07 0.368E-07 0.206E+04   0.230E-11 0.133E-11 -.206E+04   -.342E-17 -.759E-18 -.280E+00   -.109E-08 -.628E-09 0.188E-02
   0.637E-07 0.368E-07 0.206E+04   0.230E-11 0.133E-11 -.206E+04   -.515E-17 -.108E-17 -.280E+00   -.109E-08 -.628E-09 0.188E-02
   -.533E-11 -.243E-11 0.613E-10   -.349E-11 -.211E-11 0.171E-12   0.397E-22 0.182E-22 -.397E-22   0.849E-13 -.242E-13 0.172E-12
   -.545E-11 -.312E-11 -.781E-11   -.349E-11 -.211E-11 0.568E-13   -.662E-22 0.265E-22 0.993E-23   -.705E-13 0.560E-13 0.121E-12
   -.418E-11 -.218E-11 0.610E-10   -.350E-11 -.215E-11 0.568E-13   0.000E+00 -.265E-22 0.827E-23   0.836E-13 -.248E-13 0.183E-12
   -.540E-11 -.316E-11 -.787E-11   -.350E-11 -.215E-11 0.171E-12   0.662E-23 0.331E-22 0.132E-22   -.732E-13 0.544E-13 0.120E-12
   -.637E-07 -.368E-07 -.206E+04   0.120E-11 0.798E-12 0.206E+04   0.352E-17 -.184E-17 0.280E+00   0.109E-08 0.628E-09 -.188E-02
   -.637E-07 -.368E-07 -.206E+04   0.120E-11 0.800E-12 0.206E+04   0.445E-17 0.271E-17 0.280E+00   0.109E-08 0.628E-09 -.188E-02
   -.637E-07 -.368E-07 -.206E+04   0.120E-11 0.750E-12 0.206E+04   0.428E-17 0.163E-17 0.280E+00   0.109E-08 0.628E-09 -.188E-02
   -.637E-07 -.368E-07 -.206E+04   0.119E-11 0.746E-12 0.206E+04   0.591E-17 0.759E-18 0.280E+00   0.109E-08 0.628E-09 -.188E-02
   0.424E-11 0.508E-11 0.222E-10   0.542E-13 0.180E-13 0.455E-12   -.813E-18 -.130E-17 -.611E-15   0.189E-13 0.282E-12 -.185E-11

 POSITION                                       TOTAL-FORCE (eV/Angst)
      1.47007      0.84875     10.00000         0.000000      0.000000     -0.052319
      4.41022      0.84875     10.00000         0.000000      0.000000     -0.052319
      2.94015      3.39499     10.00000         0.000000     -0.000000     -0.052319
      5.88030      3.39499     10.00000         0.000000      0.000000     -0.052319
      5.88030      1.69750     12.40062        -0.000000      0.000000     -0.000000
      2.94015      1.69750     12.40062        -0.000000      0.000000     -0.000000
      7.35037      4.24374     12.40062        -0.000000      0.000000     -0.000000
      4.41022      4.24374     12.40062        -0.000000      0.000000     -0.000000
      0.00000      0.00000     14.80124        -0.000000      0.000000      0.052319
      2.94015      0.00000     14.80124        -0.000000     -0.000000      0.052319
      1.47007      2.54624     14.80124        -0.000000     -0.000000      0.052319
      4.41022      2.54624     14.80124        -0.000000     -0.000000      0.052319
    total drift:                                0.000000      0.000000      0.000000

  FREE ENERGIE OF THE ION-ELECTRON SYSTEM (eV)
  free  energy   TOTEN  =       -35.86264723 eV

  energy  without entropy=      -35.84668962  energy(sigma->0) =      -35.85732803

[...]

 d Force = 0.8905161E-03[ 0.725E-03, 0.106E-02]  d Energy = 0.1048739E-02-0.158E-03
 d Force = 0.4166691E+02[ 0.417E+02, 0.417E+02]  d Ewald  = 0.4166691E+02-0.720E-06

 Steepest descent step on ions:
 trial-energy change:   -0.001049  1 .order   -0.000891   -0.001056   -0.000725
  (g-gl).g = 0.106E-02      g.g   = 0.106E-02  gl.gl    = 0.000E+00
 g(Force)  = 0.106E-02   g(Stress)= 0.000E+00 ortho     = 0.000E+00
 gamma     =   0.00000
 trial     =   1.00000
 opt step  =   3.18345  (harmonic =   3.18345) maximal distance =0.00803511
 next E    =   -35.864329   (d E  =  -0.00168)

[...]

 eigenvalues of (default mixing * dielectric matrix)
  average eigenvalue GAMMA=   1.0319
  1.0319

[...]

 eigenvalue-minimisations  :  2640
 total energy-change (2. order) : 0.9334719E-04  (-0.6865058E-04)
 number of electron     132.0000169 magnetization
 augmentation part       48.3778713 magnetization

[...]

 Conjugate gradient step on ions:
 trial-energy change:   -0.000242  1 .order   -0.000197   -0.000267   -0.000128
  (g-gl).g =-0.260E-03      g.g   = 0.332E-03  gl.gl    = 0.106E-02
 g(Force)  = 0.332E-03   g(Stress)= 0.000E+00 ortho     = 0.592E-03
 gamma     =  -0.24635
 trial     =   1.43669
 opt step  =   2.75326  (harmonic =   2.75326) maximal distance =0.00218223
 next E    =   -35.865655   (d E  =  -0.00026)

 FEWALD executed in parallel

[...]

 Broyden mixing:
  rms(total) = 0.47488E-02    rms(broyden)= 0.47485E-02
  rms(prec ) = 0.47886E-02
  weight for this iteration     100.00

[...]

----------------------------------------- Iteration    5(   2)  ---------------------------------------

 eigenvalue-minimisations  :  2544
 total energy-change (2. order) :-0.5434210E-04  (-0.5996594E-04)
 number of electron     132.0000169 magnetization
 augmentation part       48.3779800 magnetization

 Free energy of the ion-electron system (eV)
  alpha Z        PSCENC =       225.84438850
  Ewald energy   TEWEN  =     45603.05091861
  -Hartree energ DENC   =    -56760.26743871
  -exchange      EXHF   =         0.00000000
  -V(xc)+E(xc)   XCENC  =       176.42045508
  PAW double counting   =     11936.10920342   -11684.76812610
  entropy T*S    EENTRO =        -0.01638566
  eigenvalues    EBANDS =      -645.20510982
  atomic energy  EATOM  =     11112.96622521
  Solvation  Ediel_sol  =         0.00000000
  free energy    TOTEN  =       -35.86586947 eV

  energy without entropy =      -35.84948381  energy(sigma->0) =      -35.86040758

 average (electrostatic) potential at core
  the test charge radii are     1.2098
  (the norm of the test charge is              1.0000)
       1 -74.2670       2 -74.2670       3 -74.2670       4 -74.2670       5 -74.6160
       6 -74.6160       7 -74.6160       8 -74.6160       9 -74.2670      10 -74.2670
      11 -74.2670      12 -74.2670

 E-fermi :  -1.2070     XC(G=0):  -4.2804     alpha+bet : -3.8366

[...]

 k-point    12 :      -0.3333    0.3333    0.0000
  band No.  band energies     occupation
      1      -7.7560      2.00000
      2      -7.7560      2.00000
      3      -7.7560      2.00000
      4      -6.7175      2.00000
      5      -6.7175      2.00000
      6      -6.7175      2.00000
      7      -6.4664      2.00000
      8      -6.4163      2.00000
      9      -6.4163      2.00000
     10      -6.3922      2.00000
     11      -6.3922      2.00000
     12      -6.3922      2.00000
     13      -6.2869      2.00000
     14      -6.2869      2.00000
     15      -6.2869      2.00000
     16      -5.9708      2.00000
     17      -5.9708      2.00000
     18      -5.8033      2.00000
     19      -5.8033      2.00000
     20      -5.8033      2.00000
     21      -5.6236      2.00000
     22      -5.6236      2.00000
     23      -5.6236      2.00000
     24      -5.4458      2.00000
     25      -5.4458      2.00000
     26      -5.4458      2.00000
     27      -5.3669      2.00000
     28      -5.3669      2.00000
     29      -5.3669      2.00000
     30      -5.2519      2.00000
     31      -4.9121      2.00000
     32      -4.9121      2.00000
     33      -4.9043      2.00000
     34      -4.8925      2.00000
     35      -4.8720      2.00000
     36      -4.8720      2.00000
     37      -4.8720      2.00000
     38      -4.7818      2.00000
     39      -4.7818      2.00000
     40      -4.7818      2.00000
     41      -4.3610      2.00000
     42      -4.3610      2.00000
     43      -4.3610      2.00000
     44      -4.1952      2.00000
     45      -4.1952      2.00000
     46      -4.0296      2.00000
     47      -4.0296      2.00000
     48      -4.0296      2.00000
     49      -3.8517      2.00000
     50      -3.8517      2.00000
     51      -3.8517      2.00000
     52      -3.4679      2.00000
     53      -3.4679      2.00000
     54      -3.4679      2.00000
     55      -3.4002      2.00000
     56      -3.4002      2.00000
     57      -3.3536      2.00000
     58      -3.3536      2.00000
     59      -3.3536      2.00000
     60      -3.2878      2.00000
[...]
     82       5.9177      0.00000
     83       5.9177      0.00000
     84       5.9177      0.00000
     85       5.9993      0.00000
     86       5.9993      0.00000
     87       5.9993      0.00000
     88       6.0024      0.00000
     89       6.0024      0.00000
     90       6.5509      0.00000
     91       7.0913      0.00000
     92       7.0913      0.00000
     93       7.0913      0.00000
     94       7.1834      0.00000
     95       7.1834      0.00000
     96       7.1834      0.00000

 soft charge-density along one line, spin component           1
         0         1         2         3         4         5         6         7         8         9
 total charge-density along one line

------------------------ aborting loop because EDIFF is reached ----------------------------------------

  FORCE on cell =-STRESS in cart. coord.  units (eV):
  Direction    XX          YY          ZZ          XY          YZ          ZX
  Alpha Z   225.84439   225.84439   225.84439
  Ewald   53220.26816 53220.26816-60837.49758    -0.00000    -0.00000    -0.00000
  Hartree 55765.26593 55765.26593-54769.57684    -0.00000    -0.00000    -0.00000
  E(xc)    -591.42743  -591.42740  -594.83788    -0.00002     0.00000     0.00000
  Local  ************************113313.95845     0.00096    -0.00000    -0.00000
  n-local    -3.44892   -48.35562   -11.76960   -22.82618    -0.75129     0.46391
  augment   810.45467   810.45550   818.30478    -0.00072    -0.00000    -0.00001
  Kinetic  1824.31103  1834.56380  1855.92366     4.32400    -0.37791     0.43560
  Fock        0.00000     0.00000     0.00000     0.00000     0.00000     0.00000
  Total     -10.69069   -10.69069     0.34939     0.00000     0.00000     0.00000
  in kB     -23.06287   -23.06287     0.75374     0.00000     0.00000     0.00000

 VOLUME and BASIS-vectors are now :
  energy-cutoff  :      400.00
  volume of cell :      742.68
      direct lattice vectors                 reciprocal lattice vectors
     5.880299992  0.000000000  0.000000000     0.170059351 -0.098183812  0.000000000
     2.940149996  5.092489175  0.000000000     0.000000000  0.196367624  0.000000000
     0.000000000  0.000000000 24.801244839     0.000000000  0.000000000  0.040320557

  length of vectors
     5.880299992  5.880299992 24.801244839     0.196367624  0.196367624  0.040320557

 FORCES acting on ions
    electron-ion (+dipol)            ewald-force                    non-local-force                 convergence-correction
   -.103E-08 -.594E-09 0.206E+04   0.225E-11 0.129E-11 -.206E+04   0.434E-18 0.759E-18 -.221E+00   0.262E-08 0.151E-08 -.944E-01
   -.103E-08 -.593E-09 0.206E+04   0.225E-11 0.129E-11 -.206E+04   -.271E-18 -.651E-18 -.221E+00   0.262E-08 0.151E-08 -.944E-01
   -.103E-08 -.594E-09 0.206E+04   0.225E-11 0.125E-11 -.206E+04   0.466E-17 -.867E-18 -.221E+00   0.262E-08 0.151E-08 -.944E-01
   -.103E-08 -.595E-09 0.206E+04   0.225E-11 0.125E-11 -.206E+04   -.287E-17 0.249E-17 -.221E+00   0.262E-08 0.151E-08 -.944E-01
   -.537E-11 -.241E-11 0.608E-10   -.342E-11 -.194E-11 -.398E-12   -.662E-23 0.331E-23 -.331E-23   -.124E-11 0.110E-11 0.237E-11
   -.544E-11 -.316E-11 -.814E-11   -.342E-11 -.194E-11 -.512E-12   0.199E-22 0.000E+00 0.182E-22   0.104E-11 -.901E-12 0.286E-11
   -.421E-11 -.216E-11 0.606E-10   -.343E-11 -.199E-11 -.398E-12   -.132E-22 0.331E-23 -.136E-22   -.164E-11 0.670E-12 0.301E-11
   -.537E-11 -.319E-11 -.820E-11   -.343E-11 -.198E-11 -.284E-12   0.827E-23 0.331E-23 0.331E-23   0.188E-11 -.669E-12 0.289E-11
   0.103E-08 0.598E-09 -.206E+04   0.119E-11 0.713E-12 0.206E+04   -.585E-17 -.217E-18 0.221E+00   -.262E-08 -.151E-08 0.944E-01
   0.104E-08 0.598E-09 -.206E+04   0.119E-11 0.722E-12 0.206E+04   0.651E-18 -.282E-17 0.221E+00   -.262E-08 -.151E-08 0.944E-01
   0.104E-08 0.598E-09 -.206E+04   0.119E-11 0.669E-12 0.206E+04   -.293E-17 0.651E-18 0.221E+00   -.262E-08 -.151E-08 0.944E-01
   0.103E-08 0.598E-09 -.206E+04   0.119E-11 0.668E-12 0.206E+04   -.114E-17 0.651E-18 0.221E+00   -.262E-08 -.151E-08 0.944E-01
   0.503E-11 0.452E-11 0.327E-10   0.514E-13 0.223E-14 0.909E-12   -.732E-17 0.993E-23 -.583E-15   -.208E-12 0.554E-12 0.584E-11

 POSITION                                       TOTAL-FORCE (eV/Angst)
      1.47007      0.84875      9.98978        -0.000000      0.000000     -0.013551
      4.41022      0.84875      9.98978        -0.000000      0.000000     -0.013551
      2.94015      3.39499      9.98978        -0.000000      0.000000     -0.013551
      5.88030      3.39499      9.98978        -0.000000      0.000000     -0.013551
      5.88030      1.69750     12.40062        -0.000000     -0.000000      0.000000
      2.94015      1.69750     12.40062        -0.000000     -0.000000      0.000000
      7.35037      4.24374     12.40062        -0.000000     -0.000000      0.000000
      4.41022      4.24374     12.40062        -0.000000     -0.000000      0.000000
     -0.00000      0.00000     14.81146         0.000000      0.000000      0.013551
      2.94015     -0.00000     14.81146         0.000000     -0.000000      0.013551
      1.47007      2.54624     14.81146         0.000000      0.000000      0.013551
      4.41022      2.54624     14.81146         0.000000      0.000000      0.013551
    total drift:                                0.000000      0.000000      0.000000

  FREE ENERGIE OF THE ION-ELECTRON SYSTEM (eV)
  free  energy   TOTEN  =       -35.86586947 eV

  energy  without entropy=      -35.84948381  energy(sigma->0) =      -35.86040758

 d Force = 0.1150810E-03[ 0.113E-03, 0.117E-03]  d Energy = 0.2283916E-03-0.113E-03
 d Force = 0.1720342E+02[ 0.172E+02, 0.172E+02]  d Ewald  = 0.1720342E+02-0.480E-07

 reached required accuracy - stopping structural energy minimisation