 vasp.5.4.1 05Feb16 (build Feb 08 2018 09:21:51) complex

 executed on             LinuxIFC date 2019.11.21  23:36:35

 INCAR:
 POTCAR:    PAW_PBE Au 04Oct2007
 POTCAR:    PAW_PBE O 08Apr2002

 POTCAR:    PAW_PBE Au 04Oct2007
   VRHFIN =Au: s1d10

   TITEL  = PAW_PBE Au 04Oct2007
   POMASS =  196.966; ZVAL   =   11.000    mass and valenz
   ENMAX  =  229.943; ENMIN  =  172.457 eV

 POTCAR:    PAW_PBE O 08Apr2002
   VRHFIN =O: s2p4

   TITEL  = PAW_PBE O 08Apr2002
   POMASS =   16.000; ZVAL   =    6.000    mass and valenz
   ENMAX  =  400.000; ENMIN  =  300.000 eV

  PAW_PBE Au 04Oct2007                  :
  PAW_PBE O 08Apr2002                   :

 POSCAR: Au  O
  positions in cartesian coordinates
 exchange correlation table for  LEXCH =        8
   RHO(1)=    0.500       N(1)  =     2000
   RHO(2)=  100.500       N(2)  =     4000

 ion  position               nearest neighbor table
   1  0.167  0.167  0.403-   8 2.94   5 2.94   3 2.94   3 2.94   4 2.94   4 2.94   2 2.94   2 2.94
                             6 2.94
   2  0.667  0.167  0.403-   7 2.94   6 2.94   4 2.94   3 2.94   4 2.94   3 2.94   1 2.94   1 2.94
                             5 2.94
   3  0.167  0.667  0.403-   6 2.94   7 2.94   1 2.94   1 2.94   2 2.94   2 2.94   4 2.94   4 2.94
                             8 2.94
   4  0.667  0.667  0.403-   5 2.94   8 2.94   2 2.94   1 2.94   2 2.94   1 2.94   3 2.94   3 2.94
                             7 2.94
   5  0.833  0.333  0.500-   4 2.94   1 2.94  11 2.94   9 2.94  12 2.94   7 2.94   7 2.94   8 2.94
                             8 2.94   6 2.94   6 2.94   2 2.94
   6  0.333  0.333  0.500-   3 2.94   2 2.94  12 2.94  11 2.94  10 2.94   8 2.94   7 2.94   8 2.94
                             7 2.94   5 2.94   5 2.94   1 2.94
   7  0.833  0.833  0.500-   2 2.94   3 2.94   9 2.94  10 2.94  11 2.94   5 2.94   5 2.94   6 2.94
                             6 2.94   8 2.94   8 2.94   4 2.94
   8  0.333  0.833  0.500-   1 2.94   4 2.94  10 2.94   9 2.94  12 2.94   6 2.94   5 2.94   6 2.94
                             5 2.94   7 2.94   7 2.94   3 2.94
   9  0.000  0.000  0.597-  13 2.08   7 2.94   8 2.94   5 2.94  11 2.94  11 2.94  12 2.94  12 2.94
                            10 2.94  10 2.94
  10  0.500  0.000  0.597-  13 2.08   8 2.94   6 2.94   7 2.94  12 2.94  11 2.94  12 2.94  11 2.94
                             9 2.94   9 2.94
  11  0.000  0.500  0.597-  13 2.08   5 2.94   7 2.94   6 2.94   9 2.94   9 2.94  10 2.94  10 2.94
                            12 2.94  12 2.94
  12  0.500  0.500  0.597-   6 2.94   5 2.94   8 2.94  10 2.94   9 2.94  10 2.94   9 2.94  11 2.94
                            11 2.94
  13  0.167  0.167  0.645-   9 2.08  11 2.08  10 2.08

  LATTYP: Found a hexagonal cell.
 ALAT       =     5.8802999923
 C/A-ratio  =     4.2176835996

  Lattice vectors:

 A1 = (   2.9401499962,  -5.0924891752,   0.0000000000)
 A2 = (  -5.8802999923,   0.0000000000,   0.0000000000)
 A3 = (   0.0000000000,   0.0000000000, -24.8012448386)

Analysis of symmetry for initial positions (statically):
 Subroutine PRICEL returns:
 Original cell was already a primitive cell.

 Routine SETGRP: Setting up the symmetry group for a
 hexagonal supercell.

 Subroutine GETGRP returns: Found  6 space group operations
 (whereof  2 operations were pure point group operations)
 out of a pool of 24 trial point group operations.

The static configuration has the point symmetry C_1h.
 The point group associated with its full space group is C_3v.

Analysis of symmetry for dynamics (positions and initial velocities):
 Subroutine PRICEL returns:
 Original cell was already a primitive cell.

 Routine SETGRP: Setting up the symmetry group for a
 hexagonal supercell.

 Subroutine GETGRP returns: Found  6 space group operations
 (whereof  2 operations were pure point group operations)
 out of a pool of 24 trial point group operations.

The dynamic configuration has the point symmetry C_1h.
 The point group associated with its full space group is C_3v.

 Subroutine INISYM returns: Found  6 space group operations
 (whereof  2 operations are pure point group operations),
 and found     1 'primitive' translations

 KPOINTS: KPOINTS created by Atomic Simulation Env

Automatic generation of k-mesh.
Space group operators:
 irot       det(A)        alpha          n_x          n_y          n_z        tau_x        tau_y        tau_z
    1     1.000000     0.000000     1.000000     0.000000     0.000000     0.000000     0.000000     0.000000
    2    -1.000000   180.000000     0.500000    -0.866025     0.000000     0.000000     0.000000     0.000000
    3     1.000000   120.000000     0.000000     0.000000     1.000000     0.000000    -0.500000     0.000000
    4     1.000000   120.000000     0.000000     0.000000    -1.000000    -0.500000    -0.000000     0.000000
    5    -1.000000   180.000000     1.000000     0.000000     0.000000    -0.500000     0.000000     0.000000
    6    -1.000000   180.000000    -0.500000    -0.866025     0.000000     0.000000    -0.500000     0.000000

 Subroutine IBZKPT returns following result:

 Found     12 irreducible k-points:

 Following reciprocal coordinates:
            Coordinates               Weight
  0.000000  0.000000  0.000000      1.000000
  0.111111  0.000000  0.000000      6.000000
  0.222222 -0.000000  0.000000      6.000000
  0.333333  0.000000  0.000000      6.000000
  0.444444 -0.000000  0.000000      6.000000
  0.222222  0.111111  0.000000      6.000000
  0.333333  0.111111  0.000000     12.000000
  0.444444  0.111111  0.000000     12.000000
 -0.444444  0.111111  0.000000      6.000000
  0.444444  0.222222  0.000000      6.000000
 -0.444444  0.222222  0.000000     12.000000
 -0.333333  0.333333  0.000000      2.000000

 Following cartesian coordinates:
            Coordinates               Weight
  0.000000  0.000000  0.000000      1.000000
  0.018895 -0.010909  0.000000      6.000000
  0.037791 -0.021819  0.000000      6.000000
  0.056686 -0.032728  0.000000      6.000000
  0.075582 -0.043637  0.000000      6.000000
  0.037791 -0.000000  0.000000      6.000000
  0.056686 -0.010909  0.000000     12.000000
  0.075582 -0.021819  0.000000     12.000000
 -0.075582  0.065456  0.000000      6.000000
  0.075582  0.000000  0.000000      6.000000
 -0.075582  0.087274  0.000000     12.000000
 -0.056686  0.098184  0.000000      2.000000

 I would recommend the setting:
   dimension x,y,z NGX =    29 NGY =   29 NGZ =  121
 SYSTEM =  unknown system
 POSCAR =  Au  O

 Startparameter for this run:
   NWRITE =      2    write-flag & timer
   PREC   = normal    normal or accurate (medium, high low for compatibility)
   ISTART =      0    job   : 0-new  1-cont  2-samecut
   ICHARG =      2    charge: 1-file 2-atom 10-const
   ISPIN  =      1    spin polarized calculation?
   LNONCOLLINEAR =      F non collinear calculations
   LSORBIT =      F    spin-orbit coupling
   INIWAV =      1    electr: 0-lowe 1-rand  2-diag
   LASPH  =      F    aspherical Exc in radial PAW
   METAGGA=      F    non-selfconsistent MetaGGA calc.

 Electronic Relaxation 1
   ENCUT  =  400.0 eV  29.40 Ry    5.42 a.u.   9.59  9.59 40.44*2*pi/ulx,y,z
   ENINI  =  400.0     initial cutoff
   ENAUG  =  605.4 eV  augmentation charge cutoff
   NELM   =     60;   NELMIN=  2; NELMDL= -5     # of ELM steps
   EDIFF  = 0.1E-03   stopping-criterion for ELM
   LREAL  =      F    real-space projection
   NLSPLINE    = F    spline interpolate recip. space projectors
   LCOMPAT=      F    compatible to vasp.4.4
   GGA_COMPAT  = T    GGA compatible to vasp.4.4-vasp.4.6
   LMAXPAW     = -100 max onsite density
   LMAXMIX     =    2 max onsite mixed and CHGCAR
   VOSKOWN=      0    Vosko Wilk Nusair interpolation
   ROPT   =    0.00000   0.00000
 Ionic relaxation
   EDIFFG = 0.1E-02   stopping-criterion for IOM
   NSW    =     20    number of steps for IOM
   NBLOCK =      1;   KBLOCK =     20    inner block; outer block
   IBRION =      2    ionic relax: 0-MD 1-quasi-New 2-CG
   NFREE  =      1    steps in history (QN), initial steepest desc. (CG)
   ISIF   =      2    stress and relaxation
   IWAVPR =     11    prediction:  0-non 1-charg 2-wave 3-comb
   ISYM   =      2    0-nonsym 1-usesym 2-fastsym
   LCORR  =      T    Harris-Foulkes like correction to forces

   POTIM  = 0.5000    time-step for ionic-motion
   TEIN   =    0.0    initial temperature
   TEBEG  =    0.0;   TEEND  =   0.0 temperature during run
   SMASS  =  -3.00    Nose mass-parameter (am)
   estimated Nose-frequenzy (Omega)   =  0.10E-29 period in steps =****** mass=  -0.790E-27a.u.
   SCALEE = 1.0000    scale energy and forces
   NPACO  =    256;   APACO  = 16.0  distance and # of slots for P.C.
   PSTRESS=    0.0 pullay stress

  Mass of Ions in am
   POMASS = 196.97 16.00
  Ionic Valenz
   ZVAL   =  11.00  6.00
  Atomic Wigner-Seitz radii
  virtual crystal weights
   VCA    =   1.00  1.00
   NELECT =     138.0000    total number of electrons
   NUPDOWN=      -1.0000    fix difference up-down

 DOS related values:
   EMIN   =  10.00;   EMAX   =-10.00  energy-range for DOS
   EFERMI =   0.00
   ISMEAR =     1;   SIGMA  =   0.10  broadening in eV -4-tet -1-fermi 0-gaus

 Electronic relaxation 2 (details)
   IALGO  =     38    algorithm
   LDIAG  =      T    sub-space diagonalisation (order eigenvalues)
   LSUBROT=      F    optimize rotation matrix (better conditioning)
   TURBO    =      0    0=normal 1=particle mesh
   IRESTART =      0    0=no restart 2=restart with 2 vectors
   NREBOOT  =      0    no. of reboots
   NMIN     =      0    reboot dimension
   EREF     =   0.00    reference energy to select bands
   IMIX   =      4    mixing-type and parameters
     AMIX     =   0.40;   BMIX     =  1.00
     AMIX_MAG =   1.60;   BMIX_MAG =  1.00
     AMIN     =   0.10
     WC   =   100.;   INIMIX=   1;  MIXPRE=   1;  MAXMIX= -45

 Intra band minimization:
   WEIMIN = 0.0010     energy-eigenvalue tresh-hold
   EBREAK =  0.26E-06  absolut break condition
   DEPER  =   0.30     relativ break condition

   TIME   =   0.40     timestep for ELM

  volume/ion in A,a.u.               =      57.13       385.53
  Fermi-wavevector in a.u.,A,eV,Ry     =   0.934186  1.765356 11.873860  0.872704
  Thomas-Fermi vector in A             =   2.060965

 Write flags
   LWAVE  =      F    write WAVECAR
   LCHARG =      F    write CHGCAR
   LVTOT  =      F    write LOCPOT, total local potential
   LVHAR  =      F    write LOCPOT, Hartree potential only
   LELF   =      F    write electronic localiz. function (ELF)
   LORBIT =      0    0 simple, 1 ext, 2 COOP (PROOUT)

 Dipole corrections
   LMONO  =      F    monopole corrections only (constant potential shift)
   LDIPOL =      F    correct potential (dipole corrections)
   IDIPOL =      0    1-x, 2-y, 3-z, 4-all directions
   EPSILON=  1.0000000 bulk dielectric constant

 Exchange correlation treatment:
   GGA     =    --    GGA type
   VOSKOWN=      0    Vosko Wilk Nusair interpolation
   LHFCALC =     F    Hartree Fock is set to
   LHFONE  =     F    Hartree Fock one center treatment
   AEXX    =    0.0000 exact exchange contribution

 Linear response parameters
   LEPSILON=     F    determine dielectric tensor
[...]
  energy-cutoff  :      400.00
  volume of cell :      742.68
      direct lattice vectors                 reciprocal lattice vectors
     5.880299992  0.000000000  0.000000000     0.170059351 -0.098183812  0.000000000
     2.940149996  5.092489175  0.000000000     0.000000000  0.196367624  0.000000000
     0.000000000  0.000000000 24.801244839     0.000000000  0.000000000  0.040320557

[...]

 FORCES acting on ions
    electron-ion (+dipol)            ewald-force                    non-local-force                 convergence-correction
   0.123E-04 0.709E-05 0.217E+04   0.231E-11 0.138E-11 -.217E+04   -.121E-16 0.000E+00 -.381E+00   0.197E-09 0.114E-09 0.992E-03
   -.789E-05 0.114E-01 0.217E+04   0.231E-11 0.139E-11 -.217E+04   0.347E-17 0.772E-02 -.222E+00   -.707E-09 -.742E-04 0.101E-02
   0.984E-02 -.569E-02 0.217E+04   0.231E-11 0.133E-11 -.217E+04   0.668E-02 -.386E-02 -.222E+00   -.643E-04 0.371E-04 0.101E-02
   -.984E-02 -.568E-02 0.217E+04   0.231E-11 0.133E-11 -.217E+04   -.668E-02 -.386E-02 -.222E+00   0.643E-04 0.371E-04 0.101E-02
   0.698E+01 -.403E+01 0.143E+03   -.703E+01 0.406E+01 -.144E+03   -.973E-02 0.562E-02 0.746E-01   0.174E-03 -.100E-03 -.233E-02
   -.698E+01 -.403E+01 0.143E+03   0.703E+01 0.406E+01 -.144E+03   0.973E-02 0.562E-02 0.746E-01   -.174E-03 -.100E-03 -.233E-02
   0.155E-06 0.892E-07 0.136E+03   -.415E-11 -.253E-11 -.135E+03   -.867E-17 -.694E-17 -.896E+00   -.257E-09 -.149E-09 -.821E-03
   0.125E-05 0.806E+01 0.143E+03   -.275E-11 -.812E+01 -.144E+03   -.943E-17 -.112E-01 0.746E-01   0.192E-08 0.201E-03 -.233E-02
   0.119E+03 0.688E+02 -.189E+04   -.121E+03 -.698E+02 0.189E+04   0.318E+00 0.183E+00 -.323E+00   -.790E-04 -.456E-04 -.120E-02
   -.119E+03 0.688E+02 -.189E+04   0.121E+03 -.698E+02 0.189E+04   -.318E+00 0.183E+00 -.323E+00   0.790E-04 -.456E-04 -.120E-02
   0.259E-05 -.138E+03 -.189E+04   0.786E-11 0.140E+03 0.189E+04   -.694E-17 -.367E+00 -.323E+00   0.885E-08 0.912E-04 -.120E-02
   -.971E-06 -.561E-06 -.197E+04   -.189E-11 -.110E-11 0.197E+04   0.000E+00 0.694E-17 0.134E+01   -.108E-08 -.622E-09 -.418E-02
   0.490E-04 0.283E-04 -.157E+04   0.951E-11 0.546E-11 0.159E+04   0.000E+00 -.104E-16 -.277E+02   0.928E-08 0.536E-08 -.663E-04
   0.474E-04 0.274E-04 0.291E+02   0.462E-13 -.213E-13 -.159E-11   -.118E-15 -.590E-16 -.291E+02   0.134E-07 0.773E-08 -.116E-01

 POSITION                                       TOTAL-FORCE (eV/Angst)
      1.47007      0.84875     10.00000         0.000000      0.000000      0.023068
      4.41022      0.84875     10.00000         0.000000      0.019008     -0.114775
      2.94015      3.39499     10.00000         0.016461     -0.009504     -0.114775
      5.88030      3.39499     10.00000        -0.016461     -0.009504     -0.114775
      5.88030      1.69750     12.40062        -0.057990      0.033481     -0.037392
      2.94015      1.69750     12.40062         0.057990      0.033481     -0.037392
      7.35037      4.24374     12.40062         0.000000     -0.000000      0.602494
      4.41022      4.24374     12.40062         0.000000     -0.066961     -0.037392
      0.00000      0.00000     14.80124        -1.471279     -0.849444     -0.250902
      2.94015      0.00000     14.80124         1.471279     -0.849444     -0.250902
      1.47007      2.54624     14.80124        -0.000000      1.698887     -0.250902
      4.41022      2.54624     14.80124         0.000000      0.000000     -0.431591
      1.47007      0.84875     16.00124         0.000000      0.000000      1.015233
    total drift:                                0.000047      0.000027      0.001671

  FREE ENERGIE OF THE ION-ELECTRON SYSTEM (eV)
  free  energy   TOTEN  =       -40.64464945 eV

  energy  without entropy=      -40.63592131  energy(sigma->0) =      -40.64174007

[...]

 d Force = 0.2123080E+00[-0.813E-01, 0.506E+00]  d Energy = 0.2064767E+00 0.583E-02
 d Force = 0.2157385E+02[ 0.982E+01, 0.333E+02]  d Ewald  = 0.2154165E+02 0.322E-01

 Steepest descent step on ions:
 trial-energy change:   -0.206477  1 .order   -0.212308   -0.505885    0.081269
  (g-gl).g = 0.506E+00      g.g   = 0.506E+00  gl.gl    = 0.000E+00
 g(Force)  = 0.506E+00   g(Stress)= 0.000E+00 ortho     = 0.000E+00
 gamma     =   0.00000
 trial     =   1.00000
 opt step  =   0.85417  (harmonic =   0.86159) maximal distance =0.07000641
 next E    =   -40.857070   (d E  =  -0.21242)

[...]

 d Force = 0.5702895E-02[-0.446E-03, 0.119E-01]  d Energy = 0.5722269E-02-0.194E-04
 d Force =-0.1680794E+01[-0.193E+01,-0.143E+01]  d Ewald  =-0.1680769E+01-0.250E-04

[...]

 d Force = 0.3270013E-01[ 0.290E-01, 0.364E-01]  d Energy = 0.3257573E-01 0.124E-03
 d Force = 0.3611142E+02[ 0.364E+02, 0.359E+02]  d Ewald  = 0.3611005E+02 0.137E-02

 Conjugate gradient step on ions:
 trial-energy change:   -0.032576  1 .order   -0.032700   -0.036387   -0.029013
  (g-gl).g = 0.342E-01      g.g   = 0.373E-01  gl.gl    = 0.506E+00
 g(Force)  = 0.373E-01   g(Stress)= 0.000E+00 ortho     = 0.306E-02
 gamma     =   0.06763
 trial     =   0.97083
 opt step  =   3.88333  (harmonic =   4.79036) maximal distance =0.05686990
 next E    =   -40.946621   (d E  =  -0.08977)

[...]

 d Force = 0.2753062E-02[-0.200E-03, 0.571E-02]  d Energy = 0.2812884E-02-0.598E-04
 d Force =-0.1491050E+02[-0.149E+02,-0.149E+02]  d Ewald  =-0.1491050E+02 0.801E-05

[...]

 Conjugate gradient step on ions:
 trial-energy change:   -0.005338  1 .order   -0.005395   -0.007078   -0.003712
  (g-gl).g = 0.431E-02      g.g   = 0.447E-02  gl.gl    = 0.141E-01
 g(Force)  = 0.447E-02   g(Stress)= 0.000E+00 ortho     = 0.310E-03
 gamma     =   0.30546
 trial     =   1.54972
 opt step  =   3.25855  (harmonic =   3.25855) maximal distance =0.02627100
 next E    =   -40.957201   (d E  =  -0.00744)

[...]

 Conjugate gradient step on ions:
 trial-energy change:   -0.002073  1 .order   -0.002141   -0.003320   -0.000961
  (g-gl).g = 0.229E-02      g.g   = 0.190E-02  gl.gl    = 0.447E-02
 g(Force)  = 0.190E-02   g(Stress)= 0.000E+00 ortho     =-0.278E-03
 gamma     =   0.51171
 trial     =   1.89148
 opt step  =   2.66236  (harmonic =   2.66236) maximal distance =0.01461774
 next E    =   -40.959079   (d E  =  -0.00234)

[...]

 d Force = 0.6512549E-04[-0.262E-03, 0.392E-03]  d Energy = 0.1785068E-03-0.113E-03
 d Force = 0.1286147E+02[ 0.129E+02, 0.128E+02]  d Ewald  = 0.1286149E+02-0.128E-04

[...]

 Conjugate gradient step on ions:
 trial-energy change:   -0.000835  1 .order   -0.000605   -0.000861   -0.000350
  (g-gl).g = 0.504E-03      g.g   = 0.511E-03  gl.gl    = 0.190E-02
 g(Force)  = 0.511E-03   g(Stress)= 0.000E+00 ortho     =-0.339E-03
 gamma     =   0.26554
 trial     =   2.04566
 opt step  =   3.44992  (harmonic =   3.44992) maximal distance =0.01242863
 next E    =   -40.959719   (d E  =  -0.00073)

 FEWALD executed in parallel

[...]

 eigenvalue-minimisations  :  2808
 total energy-change (2. order) :-0.3011697E-03  (-0.3164853E-03)
 number of electron     138.0000056 magnetization
 augmentation part       48.8975898 magnetization

 Broyden mixing:
  rms(total) = 0.44345E-02    rms(broyden)= 0.44311E-02
  rms(prec ) = 0.45965E-02
  weight for this iteration     100.00

 eigenvalues of (default mixing * dielectric matrix)
  average eigenvalue GAMMA=   0.8956
  0.8956

[...]

----------------------------------------- Iteration   14(   3)  ---------------------------------------

 eigenvalue-minimisations  :  1800
 total energy-change (2. order) : 0.2609314E-04  (-0.7980570E-05)
 number of electron     138.0000056 magnetization
 augmentation part       48.8975898 magnetization

 Free energy of the ion-electron system (eV)
  alpha Z        PSCENC =       240.41329906
  Ewald energy   TEWEN  =     48299.88836348
  -Hartree energ DENC   =    -59854.96402458
  -exchange      EXHF   =         0.00000000
  -V(xc)+E(xc)   XCENC  =       205.01800469
  PAW double counting   =     12562.74451245   -12314.82967221
  entropy T*S    EENTRO =        -0.00473967
  eigenvalues    EBANDS =      -724.45538056
  atomic energy  EATOM  =     11545.22942124
  Solvation  Ediel_sol  =         0.00000000
  free energy    TOTEN  =       -40.96021610 eV

  energy without entropy =      -40.95547643  energy(sigma->0) =      -40.95863621

 average (electrostatic) potential at core
  the test charge radii are     1.2098  0.7215
  (the norm of the test charge is              1.0000)
       1 -74.4676       2 -74.3639       3 -74.3639       4 -74.3639       5 -74.6718
       6 -74.6718       7 -74.7506       8 -74.6718       9 -74.5616      10 -74.5616
      11 -74.5616      12 -74.4376      13 -77.1903

 E-fermi :  -1.2866     XC(G=0):  -4.3659     alpha+bet : -3.9375

[...]

 k-point    12 :      -0.3333    0.3333    0.0000
  band No.  band energies     occupation
      1     -19.5172      2.00000
      2      -8.3169      2.00000
      3      -7.8982      2.00000
      4      -7.8181      2.00000
      5      -7.2951      2.00000
      6      -7.0184      2.00000
      7      -6.8227      2.00000
      8      -6.8014      2.00000
      9      -6.7890      2.00000
     10      -6.6327      2.00000
     11      -6.5653      2.00000
     12      -6.5499      2.00000
     13      -6.5188      2.00000
     14      -6.4510      2.00000
     15      -6.4502      2.00000
     16      -6.3280      2.00000
     17      -6.3232      2.00000
     18      -6.2259      2.00000
     19      -6.1021      2.00000
     20      -6.0838      2.00000
     21      -6.0676      2.00000
     22      -6.0490      2.00000
     23      -5.8760      2.00000
     24      -5.8736      2.00000
     25      -5.8375      2.00000
     26      -5.7759      2.00000
     27      -5.6870      2.00000
     28      -5.6276      2.00000
     29      -5.6174      2.00000
     30      -5.5395      2.00000
     31      -5.5294      2.00000
     32      -5.4370      2.00000
     33      -5.3836      2.00000
     34      -5.3245      2.00000
     35      -5.1072      2.00000
     36      -5.0487      2.00000
     37      -5.0123      2.00000
     38      -4.9757      2.00000
     39      -4.9552      2.00000
     40      -4.8799      2.00000
     41      -4.8211      2.00000
     42      -4.7354      2.00000
     43      -4.5700      2.00000
     44      -4.4815      2.00000
     45      -4.4388      2.00000
     46      -4.3850      2.00000
     47      -4.2954      2.00000
     48      -4.1904      2.00000
     49      -4.1664      2.00000
     50      -4.1010      2.00000
     51      -4.0686      2.00000
     52      -3.8507      2.00000
     53      -3.8439      2.00000
     54      -3.8415      2.00000
     55      -3.6502      2.00000
     56      -3.6368      2.00000
     57      -3.5734      2.00000
     58      -3.5107      2.00000
     59      -3.5029      2.00000
     60      -3.4718      2.00000
[...]
     82       4.3470      0.00000
     83       4.9791      0.00000
     84       5.1727      0.00000
     85       5.3856      0.00000
     86       6.0182      0.00000
     87       6.0438      0.00000
     88       6.0958      0.00000
     89       6.1639      0.00000
     90       6.1693      0.00000
     91       6.1749      0.00000
     92       6.2509      0.00000
     93       6.4247      0.00000
     94       6.7615      0.00000
     95       7.2077      0.00000
     96       7.2721      0.00000

 soft charge-density along one line, spin component           1
         0         1         2         3         4         5         6         7         8         9
 total charge-density along one line

------------------------ aborting loop because EDIFF is reached ----------------------------------------

  FORCE on cell =-STRESS in cart. coord.  units (eV):
  Direction    XX          YY          ZZ          XY          YZ          ZX
  Alpha Z   240.41330   240.41330   240.41330
  Ewald   56124.71540 56124.71540-63949.55469     0.00000     0.00000     0.00000
  Hartree 58746.13828 58746.13828-57637.36862     0.00000    -0.00000    -0.00000
  E(xc)    -621.48409  -621.48407  -624.77778    -0.00002     0.00001     0.00001
  Local  ************************119189.32717     0.00145    -0.00008    -0.00015
  n-local   -21.89367   -58.27135   -29.98951   -19.13558    -0.10534    -0.41524
  augment   816.03383   816.03462   824.69690    -0.00069     0.00000     0.00001
  Kinetic  1952.28436  1964.95280  1986.59955     4.67856    -1.97297     1.80991
  Fock        0.00000     0.00000     0.00000     0.00000     0.00000     0.00000
  Total      -6.11618    -6.11618    -0.65369     0.00000     0.00000     0.00000
  in kB     -13.19435   -13.19435    -1.41020     0.00000     0.00000     0.00000

 VOLUME and BASIS-vectors are now :
  energy-cutoff  :      400.00
  volume of cell :      742.68
      direct lattice vectors                 reciprocal lattice vectors
     5.880299992  0.000000000  0.000000000     0.170059351 -0.098183812  0.000000000
     2.940149996  5.092489175  0.000000000     0.000000000  0.196367624  0.000000000
     0.000000000  0.000000000 24.801244839     0.000000000  0.000000000  0.040320557

  length of vectors
     5.880299992  5.880299992 24.801244839     0.196367624  0.196367624  0.040320557

 FORCES acting on ions
    electron-ion (+dipol)            ewald-force                    non-local-force                 convergence-correction
   0.136E-04 0.787E-05 0.215E+04   0.167E-10 0.967E-11 -.215E+04   0.191E-16 0.347E-17 -.699E+00   0.109E-07 0.629E-08 -.608E-01
   -.755E-05 0.230E+01 0.216E+04   -.952E-11 -.229E+01 -.216E+04   0.173E-17 -.240E-01 -.675E-01   0.887E-07 0.198E-02 -.953E-02
   0.199E+01 -.115E+01 0.216E+04   -.199E+01 0.115E+01 -.216E+04   -.208E-01 0.120E-01 -.675E-01   0.172E-02 -.992E-03 -.953E-02
   -.199E+01 -.115E+01 0.216E+04   0.199E+01 0.115E+01 -.216E+04   0.208E-01 0.120E-01 -.675E-01   -.172E-02 -.992E-03 -.953E-02
   -.350E+01 0.202E+01 0.151E+03   0.358E+01 -.207E+01 -.151E+03   -.660E-01 0.381E-01 -.125E-01   -.401E-02 0.231E-02 -.192E-01
   0.350E+01 0.202E+01 0.151E+03   -.358E+01 -.207E+01 -.151E+03   0.660E-01 0.381E-01 -.125E-01   0.401E-02 0.232E-02 -.192E-01
   0.481E-05 0.277E-05 0.116E+03   -.286E-10 -.292E-11 -.115E+03   0.000E+00 0.000E+00 -.113E+01   -.135E-07 -.779E-08 0.138E+00
   -.511E-05 -.405E+01 0.151E+03   0.245E-10 0.413E+01 -.151E+03   0.520E-17 -.762E-01 -.125E-01   -.359E-06 -.463E-02 -.192E-01
   0.380E+02 0.220E+02 -.194E+04   -.397E+02 -.229E+02 0.194E+04   0.166E+01 0.960E+00 -.221E+00   0.205E-01 0.118E-01 0.601E-01
   -.380E+02 0.220E+02 -.194E+04   0.397E+02 -.229E+02 0.194E+04   -.166E+01 0.960E+00 -.221E+00   -.205E-01 0.118E-01 0.601E-01
   0.175E-05 -.439E+02 -.194E+04   0.284E-11 0.459E+02 0.194E+04   0.000E+00 -.192E+01 -.221E+00   -.690E-06 -.237E-01 0.601E-01
   -.724E-05 -.418E-05 -.184E+04   -.123E-12 -.250E-12 0.183E+04   -.173E-17 0.000E+00 0.206E+01   -.400E-07 -.231E-07 0.174E-01
   0.422E-04 0.244E-04 -.152E+04   0.123E-10 0.702E-11 0.155E+04   -.165E-16 0.520E-17 -.255E+02   0.105E-06 0.605E-07 -.310E-01
   0.260E-04 0.150E-04 0.260E+02   0.356E-13 -.119E-13 0.296E-11   -.240E-15 0.520E-17 -.262E+02   0.257E-06 0.148E-06 0.158E+00

 POSITION                                       TOTAL-FORCE (eV/Angst)
      1.47007      0.84875     10.00764         0.000000      0.000000     -0.017871
      4.41022      0.84549      9.96890        -0.000000     -0.012976     -0.001453
      2.93733      3.39662      9.96890        -0.011237      0.006488     -0.001453
      5.88312      3.39662      9.96890         0.011237      0.006488     -0.001453
      5.89543      1.68876     12.38398         0.002652     -0.001531     -0.008333
      2.92502      1.68876     12.38398        -0.002652     -0.001531     -0.008333
      7.35037      4.24374     12.46325         0.000000      0.000000      0.027245
      4.41022      4.26121     12.38398         0.000000      0.003062     -0.008333
     -0.09428     -0.05443     14.88847        -0.005146     -0.002971      0.003978
      3.03443     -0.05443     14.88847         0.005146     -0.002971      0.003978
      1.47007      2.65511     14.88847         0.000000      0.005942      0.003978
      4.41022      2.54624     14.62693         0.000000      0.000000      0.011749
      1.47007      0.84875     15.98685         0.000000      0.000000     -0.003698
    total drift:                                0.000026      0.000015      0.000606

  FREE ENERGIE OF THE ION-ELECTRON SYSTEM (eV)
  free  energy   TOTEN  =       -40.96021610 eV

  energy  without entropy=      -40.95547643  energy(sigma->0) =      -40.95863621

 d Force = 0.2394268E-03[ 0.238E-03, 0.240E-03]  d Energy = 0.3880913E-03-0.149E-03
 d Force = 0.2216823E+02[ 0.222E+02, 0.222E+02]  d Ewald  = 0.2216824E+02-0.271E-05

 reached required accuracy - stopping structural energy minimisation