 vasp.5.4.1 05Feb16 (build Feb 08 2018 09:21:51) complex

 executed on             LinuxIFC date 2019.11.21  23:19:11

 INCAR:
 POTCAR:    PAW_PBE Ag 02Apr2005

 POTCAR:    PAW_PBE Ag 02Apr2005
   VRHFIN =Ag : s1 d10

   TITEL  = PAW_PBE Ag 02Apr2005
   POMASS =  107.868; ZVAL   =   11.000    mass and valenz
   ENMAX  =  249.844; ENMIN  =  187.383 eV

  PAW_PBE Ag 02Apr2005                  :

 POSCAR: Ag
  positions in cartesian coordinates
 exchange correlation table for  LEXCH =        8
   RHO(1)=    0.500       N(1)  =     2000
   RHO(2)=  100.500       N(2)  =     4000

 ion  position               nearest neighbor table
   1  0.167  0.167  0.403-   8 2.93   5 2.93   3 2.93   3 2.93   4 2.93   4 2.93   2 2.93   2 2.93
                             6 2.93
   2  0.667  0.167  0.403-   7 2.93   6 2.93   4 2.93   3 2.93   4 2.93   3 2.93   1 2.93   1 2.93
                             5 2.93
   3  0.167  0.667  0.403-   6 2.93   7 2.93   1 2.93   1 2.93   2 2.93   2 2.93   4 2.93   4 2.93
                             8 2.93
   4  0.667  0.667  0.403-   5 2.93   8 2.93   2 2.93   1 2.93   2 2.93   1 2.93   3 2.93   3 2.93
                             7 2.93
   5  0.833  0.333  0.500-   4 2.93   1 2.93  11 2.93   7 2.93   7 2.93   8 2.93   8 2.93   6 2.93
                             6 2.93   9 2.93  12 2.93   2 2.93
   6  0.333  0.333  0.500-   3 2.93   2 2.93  12 2.93   8 2.93   7 2.93   8 2.93   7 2.93   5 2.93
                             5 2.93  11 2.93  10 2.93   1 2.93
   7  0.833  0.833  0.500-   2 2.93   3 2.93   9 2.93   5 2.93   5 2.93   6 2.93   6 2.93   8 2.93
                             8 2.93  10 2.93  11 2.93   4 2.93
   8  0.333  0.833  0.500-   1 2.93   4 2.93  10 2.93   6 2.93   5 2.93   6 2.93   5 2.93   7 2.93
                             7 2.93   9 2.93  12 2.93   3 2.93
   9  0.000  0.000  0.597-   7 2.93  11 2.93  11 2.93  12 2.93  12 2.93  10 2.93  10 2.93   5 2.93
                             8 2.93
  10  0.500  0.000  0.597-   8 2.93  12 2.93  11 2.93  12 2.93  11 2.93   9 2.93   9 2.93   7 2.93
                             6 2.93
  11  0.000  0.500  0.597-   5 2.93   9 2.93   9 2.93  10 2.93  10 2.93  12 2.93  12 2.93   6 2.93
                             7 2.93
  12  0.500  0.500  0.597-   6 2.93  10 2.93   9 2.93  10 2.93   9 2.93  11 2.93  11 2.93   5 2.93
                             8 2.93

  LATTYP: Found a hexagonal cell.
 ALAT       =     5.8647436432
 C/A-ratio  =     4.2267053159

  Lattice vectors:

 A1 = (   2.9323718216,  -5.0790169817,   0.0000000000)
 A2 = (  -5.8647436432,   0.0000000000,   0.0000000000)
 A3 = (   0.0000000000,   0.0000000000, -24.7885431327)

Analysis of symmetry for initial positions (statically):
 Subroutine PRICEL returns following result:

[...]

   4 primitive cells build up your supercell.

 Routine SETGRP: Setting up the symmetry group for a
 hexagonal supercell.

 Subroutine GETGRP returns: Found 12 space group operations
 (whereof  6 operations were pure point group operations)
 out of a pool of 24 trial point group operations.

The static configuration has the point symmetry C_3v.
 The point group associated with its full space group is D_3d.

Analysis of symmetry for dynamics (positions and initial velocities):
 Subroutine PRICEL returns following result:

  LATTYP: Found a hexagonal cell.
 ALAT       =     2.9323718216
 C/A-ratio  =     8.4534106317

  Lattice vectors:

 A1 = (   1.4661859108,  -2.5395084908,   0.0000000000)
 A2 = (  -2.9323718216,   0.0000000000,   0.0000000000)
 A3 = (   0.0000000000,   0.0000000000, -24.7885431327)

   4 primitive cells build up your supercell.

 Routine SETGRP: Setting up the symmetry group for a
 hexagonal supercell.

 Subroutine GETGRP returns: Found 12 space group operations
 (whereof  6 operations were pure point group operations)
 out of a pool of 24 trial point group operations.

The dynamic configuration has the point symmetry C_3v.
 The point group associated with its full space group is D_3d.

 Subroutine INISYM returns: Found 12 space group operations
 (whereof  6 operations are pure point group operations),
 and found     4 'primitive' translations

 KPOINTS: KPOINTS created by Atomic Simulation Env

Automatic generation of k-mesh.
Space group operators:
 irot       det(A)        alpha          n_x          n_y          n_z        tau_x        tau_y        tau_z
    1     1.000000     0.000001     1.000000     0.000000     0.000000     0.000000     0.000000     0.000000
    2     1.000000   120.000000     0.000000     0.000000     1.000000     0.000000     0.000000     0.000000
    3     1.000000   120.000000     0.000000     0.000000    -1.000000     0.000000     0.000000     0.000000
    4    -1.000000   180.000000     0.500000    -0.866025     0.000000     0.000000     0.000000     0.000000
    5    -1.000000   179.999999     1.000000     0.000000     0.000000     0.000000     0.000000     0.000000
    6    -1.000000   180.000000    -0.500000    -0.866025     0.000000     0.000000     0.000000     0.000000
    7    -1.000000     0.000001     1.000000     0.000000     0.000000     0.166667    -0.333333     0.000000
    8    -1.000000   120.000000     0.000000     0.000000     1.000000     0.166667    -0.333333     0.000000
    9    -1.000000   120.000000     0.000000     0.000000    -1.000000     0.166667    -0.333333     0.000000
   10     1.000000   180.000000     0.500000    -0.866025     0.000000     0.166667    -0.333333     0.000000
   11     1.000000   179.999999     1.000000     0.000000     0.000000     0.166667    -0.333333     0.000000
   12     1.000000   180.000000    -0.500000    -0.866025     0.000000     0.166667    -0.333333     0.000000

 Subroutine IBZKPT returns following result:

 Found     12 irreducible k-points:

 Following reciprocal coordinates:
            Coordinates               Weight
  0.000000  0.000000  0.000000      1.000000
  0.111111  0.000000  0.000000      6.000000
  0.222222  0.000000  0.000000      6.000000
  0.333333  0.000000  0.000000      6.000000
  0.444444  0.000000  0.000000      6.000000
  0.222222  0.111111  0.000000      6.000000
  0.333333  0.111111  0.000000     12.000000
  0.444444  0.111111  0.000000     12.000000
 -0.444444  0.111111  0.000000      6.000000
  0.444444  0.222222  0.000000      6.000000
 -0.444444  0.222222  0.000000     12.000000
 -0.333333  0.333333  0.000000      2.000000

 Following cartesian coordinates:
            Coordinates               Weight
  0.000000  0.000000  0.000000      1.000000
  0.018946 -0.010938  0.000000      6.000000
  0.037891 -0.021876  0.000000      6.000000
  0.056837 -0.032815  0.000000      6.000000
  0.075782 -0.043753  0.000000      6.000000
  0.037891 -0.000000  0.000000      6.000000
  0.056837 -0.010938  0.000000     12.000000
  0.075782 -0.021876  0.000000     12.000000
 -0.075782  0.065629  0.000000      6.000000
  0.075782  0.000000  0.000000      6.000000
 -0.075782  0.087506  0.000000     12.000000
 -0.056837  0.098444  0.000000      2.000000

 I would recommend the setting:
   dimension x,y,z NGX =    29 NGY =   29 NGZ =  121
 SYSTEM =  unknown system
 POSCAR =  Ag

 Startparameter for this run:
   NWRITE =      2    write-flag & timer
   PREC   = normal    normal or accurate (medium, high low for compatibility)
   ISTART =      0    job   : 0-new  1-cont  2-samecut
   ICHARG =      2    charge: 1-file 2-atom 10-const
   ISPIN  =      1    spin polarized calculation?
   LNONCOLLINEAR =      F non collinear calculations
   LSORBIT =      F    spin-orbit coupling
   INIWAV =      1    electr: 0-lowe 1-rand  2-diag
   LASPH  =      F    aspherical Exc in radial PAW
   METAGGA=      F    non-selfconsistent MetaGGA calc.

 Electronic Relaxation 1
   ENCUT  =  400.0 eV  29.40 Ry    5.42 a.u.   9.56  9.56 40.42*2*pi/ulx,y,z
   ENINI  =  400.0     initial cutoff
   ENAUG  =  412.5 eV  augmentation charge cutoff
   NELM   =     60;   NELMIN=  2; NELMDL= -5     # of ELM steps
   EDIFF  = 0.1E-03   stopping-criterion for ELM
   LREAL  =      F    real-space projection
   NLSPLINE    = F    spline interpolate recip. space projectors
   LCOMPAT=      F    compatible to vasp.4.4
   GGA_COMPAT  = T    GGA compatible to vasp.4.4-vasp.4.6
   LMAXPAW     = -100 max onsite density
   LMAXMIX     =    2 max onsite mixed and CHGCAR
   VOSKOWN=      0    Vosko Wilk Nusair interpolation
   ROPT   =    0.00000
 Ionic relaxation
   EDIFFG = 0.1E-02   stopping-criterion for IOM
   NSW    =     20    number of steps for IOM
   NBLOCK =      1;   KBLOCK =     20    inner block; outer block
   IBRION =      2    ionic relax: 0-MD 1-quasi-New 2-CG
   NFREE  =      1    steps in history (QN), initial steepest desc. (CG)
   ISIF   =      2    stress and relaxation
   IWAVPR =     11    prediction:  0-non 1-charg 2-wave 3-comb
   ISYM   =      2    0-nonsym 1-usesym 2-fastsym
   LCORR  =      T    Harris-Foulkes like correction to forces

   POTIM  = 0.5000    time-step for ionic-motion
   TEIN   =    0.0    initial temperature
   TEBEG  =    0.0;   TEEND  =   0.0 temperature during run
   SMASS  =  -3.00    Nose mass-parameter (am)
   estimated Nose-frequenzy (Omega)   =  0.10E-29 period in steps =****** mass=  -0.786E-27a.u.
   SCALEE = 1.0000    scale energy and forces
   NPACO  =    256;   APACO  = 16.0  distance and # of slots for P.C.
   PSTRESS=    0.0 pullay stress

  Mass of Ions in am
   POMASS = 107.87
  Ionic Valenz
   ZVAL   =  11.00
  Atomic Wigner-Seitz radii
  virtual crystal weights
   VCA    =   1.00
   NELECT =     132.0000    total number of electrons
   NUPDOWN=      -1.0000    fix difference up-down

 DOS related values:
   EMIN   =  10.00;   EMAX   =-10.00  energy-range for DOS
   EFERMI =   0.00
   ISMEAR =     1;   SIGMA  =   0.10  broadening in eV -4-tet -1-fermi 0-gaus

 Electronic relaxation 2 (details)
   IALGO  =     38    algorithm
   LDIAG  =      T    sub-space diagonalisation (order eigenvalues)
   LSUBROT=      F    optimize rotation matrix (better conditioning)
   TURBO    =      0    0=normal 1=particle mesh
   IRESTART =      0    0=no restart 2=restart with 2 vectors
   NREBOOT  =      0    no. of reboots
   NMIN     =      0    reboot dimension
   EREF     =   0.00    reference energy to select bands
   IMIX   =      4    mixing-type and parameters
     AMIX     =   0.40;   BMIX     =  1.00
     AMIX_MAG =   1.60;   BMIX_MAG =  1.00
     AMIN     =   0.10
     WC   =   100.;   INIMIX=   1;  MIXPRE=   1;  MAXMIX= -45

 Intra band minimization:
   WEIMIN = 0.0010     energy-eigenvalue tresh-hold
   EBREAK =  0.26E-06  absolut break condition
   DEPER  =   0.30     relativ break condition

   TIME   =   0.40     timestep for ELM

  volume/ion in A,a.u.               =      61.53       415.24
  Fermi-wavevector in a.u.,A,eV,Ry     =   0.922231  1.742763 11.571884  0.850509
  Thomas-Fermi vector in A             =   2.047735

 Write flags
   LWAVE  =      F    write WAVECAR
   LCHARG =      F    write CHGCAR
   LVTOT  =      F    write LOCPOT, total local potential
   LVHAR  =      F    write LOCPOT, Hartree potential only
   LELF   =      F    write electronic localiz. function (ELF)
   LORBIT =      0    0 simple, 1 ext, 2 COOP (PROOUT)

[...]
     39      -4.5523      2.00000
     40      -4.5523      2.00000
     41      -4.3028      2.00000
     42      -4.3028      2.00000
     43      -4.3028      2.00000
     44      -4.2763      2.00000
     45      -4.2763      2.00000
     46      -4.0140      2.00000
     47      -4.0140      2.00000
     48      -4.0140      2.00000
     49      -3.9529      2.00000
     50      -3.9529      2.00000
     51      -3.9252      2.00000
     52      -3.9252      2.00000
     53      -3.9252      2.00000
     54      -3.8199      2.00000
     55      -3.8199      2.00000
     56      -3.8199      2.00000
     57      -3.6657      2.00000
     58      -3.6657      2.00000
     59      -3.6657      2.00000
     60      -3.6408      2.00000
[...]
     82       3.8601      0.00000
     83       4.5823      0.00000
     84       4.5823      0.00000
     85       4.5823      0.00000
     86       4.8241      0.00000
     87       5.0626      0.00000
     88       6.8740      0.00000
     89       6.9571      0.00000
     90       6.9862      0.00000
     91       6.9862      0.00000
     92       6.9862      0.00000
     93       7.4056      0.00000
     94       7.4056      0.00000
     95       7.4056      0.00000
     96       8.4299      0.00000

[...]

 soft charge-density along one line, spin component           1
         0         1         2         3         4         5         6         7         8         9
 total charge-density along one line

------------------------ aborting loop because EDIFF is reached ----------------------------------------

  FORCE on cell =-STRESS in cart. coord.  units (eV):
  Direction    XX          YY          ZZ          XY          YZ          ZX
  Alpha Z   165.88112   165.88112   165.88112
  Ewald   53749.07141 53749.07141-61389.22847    -0.00000    -0.00000    -0.00000
  Hartree 56876.99995 56876.99995-55257.69971    -0.00000    -0.00000    -0.00000
  E(xc)    -695.22050  -695.22048  -697.80946    -0.00002     0.00000     0.00000
  Local  ************************114539.69810     0.00061     0.00000     0.00000
  n-local  -104.66674  -124.15176  -116.91405    -9.41327     0.17135    -0.31658
  augment  1102.95491  1102.95553  1107.96734    -0.00054     0.00004     0.00008
  Kinetic  1632.01438  1634.22291  1646.52203     1.67564    -0.32931     0.49783
  Fock        0.00000     0.00000     0.00000     0.00000     0.00000     0.00000
  Total      -4.07210    -4.07210    -1.58309     0.00000     0.00000     0.00000
  in kB      -8.83587    -8.83587    -3.43508     0.00000     0.00000     0.00000

 VOLUME and BASIS-vectors are now :
  energy-cutoff  :      400.00
  volume of cell :      738.38
      direct lattice vectors                 reciprocal lattice vectors
     5.864743643  0.000000000  0.000000000     0.170510437 -0.098444247  0.000000000
     2.932371822  5.079016982  0.000000000     0.000000000  0.196888493  0.000000000
     0.000000000  0.000000000 24.788543133     0.000000000  0.000000000  0.040341217

[...]

 FORCES acting on ions
    electron-ion (+dipol)            ewald-force                    non-local-force                 convergence-correction
   -.213E-06 -.123E-06 0.208E+04   0.237E-11 0.125E-11 -.208E+04   0.477E-17 -.520E-17 -.158E+01   -.117E-08 -.678E-09 -.483E-01
   -.213E-06 -.123E-06 0.208E+04   0.234E-11 0.125E-11 -.208E+04   0.434E-17 0.607E-17 -.158E+01   -.117E-08 -.678E-09 -.483E-01
   -.213E-06 -.123E-06 0.208E+04   0.237E-11 0.130E-11 -.208E+04   -.412E-17 -.867E-18 -.158E+01   -.117E-08 -.678E-09 -.483E-01
   -.213E-06 -.123E-06 0.208E+04   0.234E-11 0.130E-11 -.208E+04   0.217E-17 0.260E-17 -.158E+01   -.117E-08 -.678E-09 -.483E-01
   -.435E-11 -.164E-11 0.664E-10   -.351E-11 -.203E-11 -.171E-12   -.662E-23 0.000E+00 -.331E-23   -.211E-13 0.536E-13 0.315E-12
   -.462E-11 -.261E-11 -.757E-11   -.354E-11 -.205E-11 -.171E-12   0.000E+00 0.662E-23 0.132E-22   0.183E-13 0.361E-13 0.318E-12
   -.280E-11 -.131E-11 0.660E-10   -.351E-11 -.201E-11 -.853E-13   -.124E-22 0.165E-22 0.662E-23   -.201E-13 0.482E-13 0.319E-12
   -.459E-11 -.260E-11 -.765E-11   -.354E-11 -.200E-11 -.227E-12   0.248E-23 -.165E-22 0.000E+00   0.225E-13 0.206E-13 0.327E-12
   0.213E-06 0.123E-06 -.208E+04   0.119E-11 0.721E-12 0.208E+04   0.629E-17 0.173E-17 0.158E+01   0.117E-08 0.678E-09 0.483E-01
   0.213E-06 0.123E-06 -.208E+04   0.116E-11 0.718E-12 0.208E+04   -.239E-17 -.781E-17 0.158E+01   0.117E-08 0.678E-09 0.483E-01
   0.213E-06 0.123E-06 -.208E+04   0.119E-11 0.760E-12 0.208E+04   -.369E-17 0.867E-18 0.158E+01   0.117E-08 0.678E-09 0.483E-01
   0.213E-06 0.123E-06 -.208E+04   0.116E-11 0.754E-12 0.208E+04   0.130E-17 -.607E-17 0.158E+01   0.117E-08 0.678E-09 0.483E-01
   0.613E-11 0.658E-11 0.169E-10   0.246E-13 -.376E-13 -.273E-11   0.867E-17 -.867E-17 0.222E-14   0.364E-12 0.396E-12 -.176E-12

 POSITION                                       TOTAL-FORCE (eV/Angst)
      1.46619      0.84650     10.00000         0.000000     -0.000000      0.061166
      4.39856      0.84650     10.00000         0.000000     -0.000000      0.061166
      2.93237      3.38601     10.00000         0.000000      0.000000      0.061166
      5.86474      3.38601     10.00000         0.000000     -0.000000      0.061166
      5.86474      1.69301     12.39427         0.000000     -0.000000     -0.000000
      2.93237      1.69301     12.39427         0.000000     -0.000000     -0.000000
      7.33093      4.23251     12.39427         0.000000     -0.000000     -0.000000
      4.39856      4.23251     12.39427         0.000000     -0.000000     -0.000000
      0.00000      0.00000     14.78854         0.000000      0.000000     -0.061166
      2.93237      0.00000     14.78854        -0.000000      0.000000     -0.061166
      1.46619      2.53951     14.78854        -0.000000      0.000000     -0.061166
      4.39856      2.53951     14.78854        -0.000000      0.000000     -0.061166
    total drift:                                0.000000      0.000000      0.000000

  FREE ENERGIE OF THE ION-ELECTRON SYSTEM (eV)
  free  energy   TOTEN  =       -29.80323903 eV

  energy  without entropy=      -29.79737043  energy(sigma->0) =      -29.80128283

[...]

 d Force = 0.1239695E-02[ 0.104E-02, 0.144E-02]  d Energy = 0.1679453E-02-0.440E-03
 d Force =-0.4903511E+02[-0.490E+02,-0.490E+02]  d Ewald  =-0.4903511E+02 0.116E-05

 Steepest descent step on ions:
 trial-energy change:   -0.001679  1 .order   -0.001240   -0.001444   -0.001035
  (g-gl).g = 0.144E-02      g.g   = 0.144E-02  gl.gl    = 0.000E+00
 g(Force)  = 0.144E-02   g(Stress)= 0.000E+00 ortho     = 0.000E+00
 gamma     =   0.00000
 trial     =   1.00000
 opt step  =   3.53534  (harmonic =   3.53534) maximal distance =0.01043209
 next E    =   -29.805791   (d E  =  -0.00255)

[...]

 Conjugate gradient step on ions:
 trial-energy change:   -0.000309  1 .order   -0.000197   -0.000219   -0.000175
  (g-gl).g =-0.359E-03      g.g   = 0.313E-03  gl.gl    = 0.144E-02
 g(Force)  = 0.313E-03   g(Stress)= 0.000E+00 ortho     = 0.672E-03
 gamma     =  -0.24879
 trial     =   1.50707
 opt step  =   6.02827  (harmonic =   7.54299) maximal distance =0.00385039
 next E    =   -29.808307   (d E  =  -0.00055)

 FEWALD executed in parallel

[...]

 Broyden mixing:
  rms(total) = 0.32524E-02    rms(broyden)= 0.32489E-02
  rms(prec ) = 0.33174E-02
  weight for this iteration     100.00

 eigenvalues of (default mixing * dielectric matrix)
  average eigenvalue GAMMA=   1.0418
  1.0418

[...]

----------------------------------------- Iteration    5(   3)  ---------------------------------------

 eigenvalue-minimisations  :  1680
 total energy-change (2. order) :-0.2318657E-05  (-0.5053450E-05)
 number of electron     132.0000371 magnetization
 augmentation part       63.2321984 magnetization

 Free energy of the ion-electron system (eV)
  alpha Z        PSCENC =       165.88112482
  Ewald energy   TEWEN  =     46346.47842979
  -Hartree energ DENC   =    -58731.19726650
  -exchange      EXHF   =         0.00000000
  -V(xc)+E(xc)   XCENC  =      -134.06094132
  PAW double counting   =     13071.45827441   -12543.10842813
  entropy T*S    EENTRO =        -0.00637662
  eigenvalues    EBANDS =      -652.35470307
  atomic energy  EATOM  =     12447.10114051
  Solvation  Ediel_sol  =         0.00000000
  free energy    TOTEN  =       -29.80874611 eV

  energy without entropy =      -29.80236949  energy(sigma->0) =      -29.80662057

 average (electrostatic) potential at core
  the test charge radii are     1.1249
  (the norm of the test charge is              1.0000)
       1 -79.7947       2 -79.7947       3 -79.7947       4 -79.7947       5 -79.9757
       6 -79.9757       7 -79.9757       8 -79.9757       9 -79.7947      10 -79.7947
      11 -79.7947      12 -79.7947

 E-fermi :  -0.8867     XC(G=0):  -4.1653     alpha+bet : -3.7304

[...]

 k-point    12 :      -0.3333    0.3333    0.0000
  band No.  band energies     occupation
      1      -6.3612      2.00000
      2      -6.3612      2.00000
      3      -6.3612      2.00000
      4      -6.1612      2.00000
      5      -6.1612      2.00000
      6      -6.1280      2.00000
      7      -6.1158      2.00000
      8      -6.1158      2.00000
      9      -6.1158      2.00000
     10      -6.0432      2.00000
     11      -6.0432      2.00000
     12      -6.0432      2.00000
     13      -6.0342      2.00000
     14      -6.0342      2.00000
     15      -6.0342      2.00000
     16      -5.7443      2.00000
     17      -5.7443      2.00000
     18      -5.5528      2.00000
     19      -5.5528      2.00000
     20      -5.5528      2.00000
     21      -5.5469      2.00000
     22      -5.5469      2.00000
     23      -5.5469      2.00000
     24      -5.3728      2.00000
     25      -5.3728      2.00000
     26      -5.3728      2.00000
     27      -5.3406      2.00000
     28      -5.3406      2.00000
     29      -5.3406      2.00000
     30      -5.3151      2.00000
     31      -5.1028      2.00000
     32      -5.0969      2.00000
     33      -5.0915      2.00000
     34      -5.0915      2.00000
     35      -5.0540      2.00000
     36      -5.0540      2.00000
     37      -5.0540      2.00000
     38      -5.0107      2.00000
     39      -5.0107      2.00000
     40      -5.0107      2.00000
     41      -4.6370      2.00000
     42      -4.6370      2.00000
     43      -4.6370      2.00000
     44      -4.5594      2.00000
     45      -4.5594      2.00000
     46      -4.4786      2.00000
     47      -4.4786      2.00000
     48      -4.4786      2.00000
     49      -4.2987      2.00000
     50      -4.2987      2.00000
     51      -4.2987      2.00000
     52      -4.1142      2.00000
     53      -4.1142      2.00000
     54      -4.1142      2.00000
     55      -4.0699      2.00000
     56      -4.0699      2.00000
     57      -3.9705      2.00000
     58      -3.9705      2.00000
     59      -3.9705      2.00000
     60      -3.9514      2.00000
[...]
     82       5.4721      0.00000
     83       5.4721      0.00000
     84       5.4721      0.00000
     85       5.6951      0.00000
     86       5.6951      0.00000
     87       5.6951      0.00000
     88       5.9326      0.00000
     89       5.9326      0.00000
     90       6.8103      0.00000
     91       6.8103      0.00000
     92       6.8103      0.00000
     93       6.9500      0.00000
     94       6.9500      0.00000
     95       6.9500      0.00000
     96       6.9729      0.00000

 soft charge-density along one line, spin component           1
         0         1         2         3         4         5         6         7         8         9
 total charge-density along one line

------------------------ aborting loop because EDIFF is reached ----------------------------------------

  FORCE on cell =-STRESS in cart. coord.  units (eV):
  Direction    XX          YY          ZZ          XY          YZ          ZX
  Alpha Z   165.88112   165.88112   165.88112
  Ewald   53990.53418 53990.53418-61634.60211    -0.00000    -0.00000    -0.00000
  Hartree 57114.55821 57114.55821-55497.49861    -0.00000    -0.00000    -0.00000
  E(xc)    -695.33717  -695.33714  -697.88543    -0.00002     0.00000     0.00000
  Local  ************************115024.89322     0.00061     0.00000     0.00000
  n-local  -103.91219  -123.18529  -115.88049    -9.26114     0.17933    -0.32501
  augment  1103.01446  1103.01507  1107.76950    -0.00053    -0.00000    -0.00001
  Kinetic  1632.18756  1634.54621  1646.34455     1.80340    -0.34219     0.52100
  Fock        0.00000     0.00000     0.00000     0.00000     0.00000     0.00000
  Total      -3.74514    -3.74514    -0.97825     0.00000     0.00000     0.00000
  in kB      -8.12642    -8.12642    -2.12265     0.00000     0.00000     0.00000

 VOLUME and BASIS-vectors are now :
  energy-cutoff  :      400.00
  volume of cell :      738.38
      direct lattice vectors                 reciprocal lattice vectors
     5.864743643  0.000000000  0.000000000     0.170510437 -0.098444247  0.000000000
     2.932371822  5.079016982  0.000000000     0.000000000  0.196888493  0.000000000
     0.000000000  0.000000000 24.788543133     0.000000000  0.000000000  0.040341217

  length of vectors
     5.864743643  5.864743643 24.788543133     0.196888493  0.196888493  0.040341217

 FORCES acting on ions
    electron-ion (+dipol)            ewald-force                    non-local-force                 convergence-correction
   -.130E-06 -.751E-07 0.208E+04   0.243E-11 0.141E-11 -.208E+04   -.629E-17 -.390E-17 -.165E+01   0.174E-07 0.100E-07 0.238E-01
   -.130E-06 -.751E-07 0.208E+04   0.240E-11 0.142E-11 -.208E+04   0.108E-17 -.867E-18 -.165E+01   0.174E-07 0.100E-07 0.238E-01
   -.130E-06 -.751E-07 0.208E+04   0.243E-11 0.147E-11 -.208E+04   0.152E-17 0.000E+00 -.165E+01   0.174E-07 0.100E-07 0.238E-01
   -.130E-06 -.751E-07 0.208E+04   0.241E-11 0.145E-11 -.208E+04   0.564E-17 -.434E-18 -.165E+01   0.174E-07 0.100E-07 0.238E-01
   -.429E-11 -.163E-11 0.665E-10   -.362E-11 -.221E-11 0.000E+00   -.108E-22 -.662E-23 -.711E-22   0.120E-12 0.110E-12 0.570E-11
   -.460E-11 -.262E-11 -.759E-11   -.365E-11 -.222E-11 0.114E-12   0.910E-23 0.414E-23 -.364E-22   0.781E-13 0.231E-12 0.646E-11
   -.280E-11 -.131E-11 0.661E-10   -.361E-11 -.217E-11 0.199E-12   0.116E-22 0.331E-23 -.397E-22   -.183E-12 -.358E-13 0.667E-11
   -.454E-11 -.260E-11 -.768E-11   -.364E-11 -.219E-11 0.171E-12   -.579E-23 0.517E-25 0.331E-22   -.198E-13 -.141E-12 0.668E-11
   0.130E-06 0.751E-07 -.208E+04   0.124E-11 0.742E-12 0.208E+04   -.369E-17 0.130E-17 0.165E+01   -.174E-07 -.100E-07 -.238E-01
   0.130E-06 0.751E-07 -.208E+04   0.121E-11 0.739E-12 0.208E+04   -.217E-18 0.520E-17 0.165E+01   -.174E-07 -.100E-07 -.238E-01
   0.130E-06 0.751E-07 -.208E+04   0.124E-11 0.772E-12 0.208E+04   0.412E-17 0.173E-17 0.165E+01   -.174E-07 -.100E-07 -.238E-01
   0.130E-06 0.751E-07 -.208E+04   0.121E-11 0.768E-12 0.208E+04   -.239E-17 0.130E-17 0.165E+01   -.174E-07 -.100E-07 -.238E-01
   0.696E-11 0.619E-11 -.259E-10   0.418E-13 -.249E-13 0.000E+00   -.217E-18 0.434E-17 -.888E-15   0.369E-12 0.534E-12 0.653E-10

 POSITION                                       TOTAL-FORCE (eV/Angst)
      1.46619      0.84650     10.01428         0.000000     -0.000000      0.015096
      4.39856      0.84650     10.01428        -0.000000      0.000000      0.015096
      2.93237      3.38601     10.01428         0.000000      0.000000      0.015096
      5.86474      3.38601     10.01428        -0.000000     -0.000000      0.015096
      5.86474      1.69301     12.39427        -0.000000      0.000000      0.000000
      2.93237      1.69301     12.39427        -0.000000      0.000000      0.000000
      7.33093      4.23251     12.39427        -0.000000      0.000000      0.000000
      4.39856      4.23251     12.39427        -0.000000      0.000000      0.000000
      0.00000      0.00000     14.77426        -0.000000     -0.000000     -0.015096
      2.93237      0.00000     14.77426         0.000000      0.000000     -0.015096
      1.46619      2.53951     14.77426        -0.000000      0.000000     -0.015096
      4.39856      2.53951     14.77426         0.000000     -0.000000     -0.015096
    total drift:                                0.000000      0.000000      0.000000

  FREE ENERGIE OF THE ION-ELECTRON SYSTEM (eV)
  free  energy   TOTEN  =       -29.80874611 eV

  energy  without entropy=      -29.80236949  energy(sigma->0) =      -29.80662057

 d Force = 0.4374155E-03[ 0.349E-03, 0.526E-03]  d Energy = 0.6787656E-03-0.241E-03
 d Force =-0.4807393E+02[-0.481E+02,-0.481E+02]  d Ewald  =-0.4807393E+02 0.113E-05

 reached required accuracy - stopping structural energy minimisation